POSCAR file written by OVITO            
   1.00000000000000     
    24.8557290194429221    1.9376698898621139    0.0000006475668947
     1.3794552972666205   17.4409863064928103   -0.0000008261090939
     0.0000002644190779   -0.0000002597318795    5.1667174865297483
   Mg   Nd
    87     6
Direct
  0.1992834061384201  0.1032291054725647  0.0084356898441911
  0.3101992607116699  0.0932483598589897  0.0093167573213577
  0.3786910176277161  0.1132927909493446  0.5734307169914246
  0.4699831902980804  0.1803346276283264  0.0117725273594260
  0.2407342195510864  0.3939153850078583  0.5349638462066650
  0.3531074225902557  0.1621279567480087  0.5583711266517639
  0.1992833912372589  0.1032291427254677  0.0084356898441911
  0.1151395142078400  0.1778575032949448  0.0087153669446707
  0.4828114807605743  0.1555613726377487  0.5650956034660339
  0.3697727024555206  0.0974005609750748  0.0098895719274879
  0.1310776472091675  0.5140222311019897  0.5121021270751953
  0.4294334053993225  0.3911421298980713  0.5440951585769653
  0.1427201032638550  0.2730993628501892  0.0100593939423561
  0.2584270536899567  0.1455413103103638  0.5541892647743225
  0.1622747033834457  0.2553099989891052  0.5373569726943970
  0.2157395780086517  0.1685236990451813  0.5495051145553589
  0.2157395780086517  0.1685236841440201  0.5495051145553589
  0.0869686901569366  0.3570272624492645  0.0103437611833215
  0.1800886243581772  0.7489169239997864  0.0158122908324003
  0.3866964578628540  0.4072992503643036  0.5468015074729919
  0.1406705826520920  0.5486034750938416  0.0128712393343449
  0.5186928510665894  0.7650134563446045  0.0178411006927490
  0.3149326741695404  0.8807989954948425  0.4650484025478363
  0.4104638695716858  0.8704594969749451  0.4728389680385590
  0.0940636396408081  0.5791631340980530  0.0127360597252846
  0.1163763180375099  0.7051383852958679  0.0144910374656320
  0.5303213000297546  0.7331896424293518  0.5069167613983154
  0.3571929037570953  0.7446944713592529  0.0165918320417404
  0.2082552462816238  0.8538089394569397  0.4736409187316895
  0.4879868924617767  0.8835831880569458  0.4617942869663239
  0.1862398087978363  0.7726364731788635  0.0161774735897779
  0.1870812177658081  0.7325075864791870  0.4990598857402802
  0.1738457530736923  0.8236113786697388  0.4790619313716888
  0.1470132470130920  0.7327638864517212  0.4926756620407104
  0.2452307194471359  0.8646855950355530  0.4743140339851379
  0.1449125558137894  0.7466207146644592  0.0153985107317567
  0.7861392498016357  0.2023955583572388  0.0160717181861401
  0.7403508424758911  0.1911065429449081  0.5750783681869507
  0.6522584557533264  0.1555064618587494  0.5776807665824890
  0.8444383740425110  0.3489201068878174  0.0184025391936302
  0.7774603962898254  0.3372610807418823  0.5453464388847351
  0.6496974825859070  0.1218853667378426  0.0130955046042800
  0.5591441988945007  0.1226914674043655  0.0119262095540762
  0.7330181002616882  0.1931005269289017  0.4867600202560425
  0.7861392498016357  0.2023955583572388  0.0160717181861401
  0.6480609774589539  0.4374217689037323  0.5454252958297729
  0.8391597270965576  0.5582900047302246  0.5163947939872742
  0.8038573861122131  0.2849971652030945  0.0168926231563091
  0.7027338743209839  0.2447277903556824  0.5587713718414307
  0.5956174135208130  0.1674350500106812  0.5635077357292175
  0.7094453573226929  0.2033620476722717  0.0145188197493553
  0.8182714581489563  0.6831030845642090  0.0192491244524717
  0.8322361707687378  0.5876060128211975  0.5277478694915771
  0.8384905457496643  0.4986091256141663  0.0187963861972094
  0.8366286754608154  0.6760498881340027  0.0198550168424845
  0.8225831389427185  0.8688760399818420  0.4526280760765076
  0.8456622362136841  0.8493601083755493  0.4593186378479004
  0.7680227160453796  0.4870532751083374  0.0172537863254547
  0.6619833707809448  0.6992031335830688  0.0179078914225101
  0.8633094429969788  0.7868210673332214  0.4776659011840820
  0.8533442616462708  0.6293150186538696  0.0199281796813011
  0.6689143180847168  0.8833158016204834  0.4571519196033478
  0.8225831389427185  0.8688759207725525  0.4526280760765076
  0.7606661319732666  0.7472963929176331  0.0192871093750000
  0.8276132941246033  0.7856052517890930  0.4858321845531464
  0.7695748805999756  0.8698188662528992  0.4595027267932892
  0.7260251641273499  0.7493448257446289  0.5016565918922424
  0.8225831389427185  0.8688760399818420  0.4526280760765076
  0.6730878353118896  0.7510102987289429  0.0184387844055891
  0.2963379621505737  0.7740130424499512  0.0168700292706490
  0.3135152757167816  0.7165865898132324  0.5065873265266418
  0.0852018818259239  0.5087018609046936  0.0119329150766134
  0.1163763180375099  0.7051383852958679  0.0144910439848900
  0.1738457530736923  0.8236113786697388  0.4790619313716888
  0.2552528679370880  0.8737130165100098  0.4683980047702789
  0.8444383740425110  0.3489200770854950  0.0184025298804045
  0.6630172133445740  0.1957872807979584  0.5627287626266479
  0.4426729083061218  0.0953712835907936  0.0105038248002529
  0.7496591806411743  0.1771610379219055  0.0150611149147153
  0.5416674613952637  0.1801607757806778  0.5656023621559143
  0.7806026935577393  0.4900245070457458  0.5362439155578613
  0.8036421537399292  0.7114974856376648  0.0195170119404793
  0.8466230630874634  0.7939149737358093  0.4788155555725098
  0.5682694911956787  0.4412893950939178  0.0149721847847104
  0.7796866893768311  0.6865063309669495  0.0187129564583302
  0.6158848404884338  0.8729373216629028  0.4668017327785492
  0.7907397747039795  0.8761664032936096  0.4526366293430328
  0.2163122892379761  0.1952930539846420  0.0099562676623464
  0.3098318576812744  0.1448963284492493  0.5573595762252808
  0.1336975842714310  0.1450151354074478  0.0085734520107508
  0.1403422355651855  0.1551348268985748  0.0086395656690001
  0.1622747033834457  0.2553100287914276  0.5373569726943970
  0.1541244834661484  0.3832298219203949  0.5270012021064758
