POSCAR file written by OVITO            
   1.00000000000000     
    25.4775894697211172    1.5500097784267244   -0.0000007073786117
     1.1015334992844690   17.2073668579927812    0.0000011634785115
    -0.0000002761533451    0.0000003276261276    5.1665267715667609
   Mg   Nd
    87     6
Direct
  0.2880201527218097  0.1452852899939869 -0.0000031724231724
  0.3756824696705809 -0.0308531203011623 -0.0000032223012789
  0.2557845598031355 -0.0212489323600103  0.9999967657775259
  0.4597400744392034  0.3217214187396890 -0.0000032087665616
  0.2978103265106970  0.4316333783490963  0.4999967945420634
  0.3970322120553150  0.2519906388240437  0.4999967949691836
  0.1339959017169667 -0.0255507160334703 -0.0000032087012830
  0.0376260214516605  0.1663306963985490 -0.0000032435031918
  0.4824615311522154  0.0888312120438724  0.4999967910183089
  0.4179363025454233  0.1509102452228507 -0.0000032072663323
  0.0374844605488396  0.4460542766595714  0.4999967924562949
  0.4227312135190071  0.4207071727439675  0.4999967830388915
  0.1983059791274895  0.3248933428231860 -0.0000032878825887
  0.2221154237099716  0.0715277647840555  0.4999968482557945
  0.1239821924370479  0.2563029353130325  0.4999968707775005
  0.0910356127404738  0.0833263940729704  0.4999968198514751
  0.2521088356996110  0.2470346254093274  0.4999967903754791
  0.0722070753891180  0.3363143524257070 -0.0000032135877051
  0.2825074666679262  0.6474143919927436 -0.0000032447198491
  0.3625833576482816  0.4889279840117127  0.9999967630410462
  0.2365139534132875  0.4876714395256981 -0.0000032361044779
  0.4528020442839684  0.8122177790270483 -0.0000032492547528
  0.3178701264173590  0.9097987287970014  0.4999968037080348
  0.3971823443588343  0.7533760405213927  0.4999967942776876
  0.0989863794203841  0.5017110888315103 -0.0000032294066921
  0.0231327413050263  0.6587693785643643 -0.0000032380986583
  0.4721698295097490  0.5894759014001784  0.4999967672448568
  0.4071352401285254  0.6480725524629215 -0.0000032473577608
  0.0714497948025516  0.9135686188077766  0.4999968606977824
  0.4400846964369464  0.9201226125285326  0.4999967737558878
  0.2069478040892873  0.8065160817979443 -0.0000032427033368
  0.2220639634583599  0.5933060703457207  0.4999967988732746
  0.1463076808531039  0.7541089652823338  0.4999967970502430
  0.0900746058158206  0.6028041392875967  0.4999967871341902
  0.2727023874199334  0.7503191488488076  0.4999967994672125
  0.0809418504663117  0.8139195467262793 -0.0000032444472707
  0.7878446924303915  0.1605377185892805 -0.0000032327545425
  0.8719213535511923 -0.0064878901158823  0.9999967613001530
  0.7459656190586973 -0.0096347137880186  0.9999967723361608
  0.9268216093777459  0.3436224084749731 -0.0000032232630506
  0.7909338288423792  0.4405236455407173  0.4999967964738827
  0.8678262356256006  0.2765520286426444  0.4999967858785249
  0.6203297156754214 -0.0115402256662293 -0.0000032399946262
  0.5440510899268513  0.1561374364312404 -0.0000032236021177
  0.9660567842615276  0.0936685254316269  0.4999969157218394
  0.9140677030276235  0.1694964049829921 -0.0000032348196591
  0.5486286963589403  0.4191248628537125  0.4999967356928975
  0.9145848958819948  0.4436247799268165  0.4999967905362491
  0.7272547686369005  0.0956993442372710  0.4999967695137160
  0.6324927032006853  0.2641908481904504  0.4999967511174244
  0.6048910696138240  0.0942176275358601  0.4999967706486591
  0.7490763127028434  0.2675736556183307  0.4999967999919772
  0.7715205342936399  0.6603054413712240 -0.0000032359004005
  0.8474922578904314  0.5000911191619757  0.9999967897470428
  0.7207715993715302  0.4965466145349899 -0.0000032133950496
  0.9468388540258271  0.8236344009950706 -0.0000032272349883
  0.8098508420158604  0.9323111954480927  0.4999967652060124
  0.8868551275304095  0.7690686138494595  0.4999967914683989
  0.5290393871213726  0.6533356959755184 -0.0000032351172267
  0.9632612526662055  0.6092969976823189  0.4999967819568789
  0.8963444306074980  0.6633947710652582 -0.0000032110593644
  0.5638201563077586  0.9270076217568957  0.4999967828191513
  0.9352622284014460  0.9286405268234670  0.4999968148884030
  0.6965238024206025  0.8235317729266812 -0.0000032411904624
  0.7149168652429733  0.6002340866425746  0.4999967971705676
  0.6399534550003088  0.7634880207145822  0.4999967539503928
  0.5942938666654279  0.5853991169705811  0.4999967613444586
  0.7627153208795424  0.7676257822329107  0.4999967818396938
  0.5739316227953959  0.8206384584958487 -0.0000032445107236
  0.3287515204025958  0.8060873107007696 -0.0000032302660791
  0.3496850960547118  0.5932271490811960  0.4999967826032183
 -0.0270267438316856  0.4984447980964432 -0.0000032161485635
  0.1552494898017104  0.6469173930039052 -0.0000032265734000
  0.0147389501537982  0.7677778860193587  0.4999967999632496
  0.1954023427073242  0.9084178958416672  0.4999967937809303
  0.7968802351010860  0.3381617808662262 -0.0000032180065703
  0.8482682589476431  0.0988671186701176  0.4999967668367363
  0.4948753399501806 -0.0145562733552775 -0.0000032157345890
  0.6664771207554521  0.1582130815817497 -0.0000032376510804
  0.5171138754109414  0.2540068893425391  0.4999967821279918
  0.6711789173892553  0.4264971452902419  0.4999967776808112
  0.8207325002571961  0.8259196741893524 -0.0000032344882868
  0.8391947462819045  0.6056435509589079  0.4999967838598426
  0.4886520071510373  0.4897545391128181 -0.0000032406271867
  0.6487812459380339  0.6569091787025227 -0.0000032131083013
  0.5192108284228838  0.7585598730637616  0.4999967903656758
  0.6865036998705276  0.9312544255043537  0.4999967706777880
  0.3251258384415982  0.3144293264962658 -0.0000031706965376
  0.3495906244878954  0.0874379824235604  0.4999968485174364
  0.0056527737116870 -0.0064035506769510 -0.0000034341132100
  0.1637161999768079  0.1582267149724721 -0.0000033657826463
 -0.0027625201413343  0.2659062090463918  0.4999968493466863
  0.1669139866156271  0.4223501896655936  0.4999969828878847
