SCAR file written by OVITO              
   1.0000000000000000     
    25.1100332242657416   -1.2684379729308985    0.0000021667793104
    -0.8972710270264843   18.3058299864515952   -0.0000022028611954
     0.0000003944360113   -0.0000005676656696    4.9362848455591370
   Mg   Nd
    89     6
Direct
  0.2960596208549539  0.1760307929719660 -0.0000028950480316
  0.3827142412354320  0.0060953087993018  0.9999970211050287
  0.2553131919933531  0.0058009263522269  0.9999968721991588
  0.4713367432181192  0.3375274048086104 -0.0000031092563328
  0.3019527170521329  0.4389222554789991  0.4999968656736119
  0.3966709620926352  0.2625600700232619  0.4999968950161511
  0.1282745287749072 -0.0118689666737359 -0.0000031389347273
  0.0445283387209894  0.1594476762158023 -0.0000030962416374
  0.4609297657202708  0.0863062921014040  0.4999968475042710
  0.4232009088731826  0.1741316108945147 -0.0000031299982371
  0.0403033569462715  0.4170562387885657  0.4999968457329350
  0.4236958032144349  0.4305322990292077  0.4999968413069020
  0.2142902786263805  0.3318737593091715 -0.0000030649000647
  0.2059042821848751  0.0671597982440238  0.4999968750445039
  0.1279962737866340  0.2458691252128481  0.4999968306357476
  0.0815133304225764  0.0759291612934685  0.4999968294605144
  0.2566101282851793  0.2541655484652430  0.4999967997528730
  0.0861895825567198  0.3294726222973146 -0.0000031289187216
  0.2935442195575010  0.6748748502647143 -0.0000031872721095
  0.3782138988758504  0.5217248570847002  0.9999968722367494
  0.2521998671288733  0.5035855866564025  0.9999968784245816
  0.4615280906880433  0.8547833476467921 -0.0000031351230567
  0.2906159127223841  0.9194781201502684  0.4999968483960034
  0.3769056333044054  0.7651508353915761  0.4999968377064368
  0.1245274467807799  0.5035247699122092 -0.0000031455707752
  0.0434002267737409  0.6599352982270295 -0.0000031190069359
  0.4608527003445924  0.5988446972880165  0.4999968692019398
  0.4200085645628682  0.6870208860234449 -0.0000031546679857
  0.0433610972136295  0.9025504956687571  0.4999968444308453
  0.4148982334695692  0.9278771077537813  0.4999968114795676
  0.2106726871129826  0.8353822697219730 -0.0000031306875282
  0.2121522709226945  0.5891366691487167  0.4999968536070574
  0.1233481773250730  0.7435998885738806  0.4999968372835031
  0.0857811914167007  0.5782484185091974  0.4999968770077816
  0.2507046628707708  0.7541152263495159  0.4999968851455834
  0.0825715015838381  0.8263560500036574 -0.0000031561661958
  0.7867561085070142  0.1612841181657728 -0.0000031602619911
  0.8667137748564184 -0.0036343945177799  0.9999968431573970
  0.7456310135412458 -0.0042745112493027  0.9999968484262504
  0.9577684709764268  0.3312097741584083 -0.0000031711487314
  0.7932152326010201  0.4126762473504976  0.4999968438428090
  0.8738157516611862  0.2394972024938258  0.4999968410281578
  0.6254501431026765  0.0005520259087991 -0.0000031700131616
  0.9429817109792512  0.0732664542714190  0.4999968410865220
  0.9173487574998506  0.1597469223302040 -0.0000031774727337
  0.5470255863302379  0.4106403018885998  0.4999968437520684
  0.9173873712089888  0.4050177940684985  0.4999968537501571
  0.7116835995621528  0.3304215770748980 -0.0000031510953809
  0.7008113579663239  0.0837157847701481  0.4999968242449674
  0.6381824098038050  0.2558809227866820  0.4999968335202775
  0.5816074760265624  0.0979978739475339  0.4999968246130485
  0.7551951210984759  0.2460610103602556  0.4999968407769181
  0.5889697561561918  0.3201975070044035 -0.0000031558839624
  0.7920473464852001  0.6636524184431200 -0.0000031328098249
  0.8742740113158489  0.4896276797474926  0.9999968598565052
  0.7502262341159116  0.4980637730253554  0.9999968470515876
  0.9581487198588328  0.8173466288536430 -0.0000031669474950
  0.7904592663055291  0.9115512668872171  0.4999968333460478
  0.8751478277613595  0.7404176425385575  0.4999968533839479
  0.6246185377275428  0.4945860127222121 -0.0000031397107423
  0.5433799070460775  0.6703538121111120 -0.0000031658889514
  0.9579605748293232  0.5724991002842481  0.4999968489891501
  0.9168084651990798  0.6540198997683351 -0.0000031566251830
  0.5427993883120168  0.9302562618037954  0.4999968132314885
  0.9165485455001599  0.9064332484546245  0.4999968281727684
  0.7088169070180630  0.8285014677649326 -0.0000031532355825
  0.7096046009621194  0.5828129984243910  0.4999968472899727
  0.6247471930314715  0.7465539756076280  0.4999968311212234
  0.5842359938610441  0.5799895219859706  0.4999968312023400
  0.7500360767439881  0.7465556868283282  0.4999968427429234
  0.5841681146752321  0.8359756017660097 -0.0000031347187211
  0.3352815625839379  0.8411197095901859 -0.0000031316356268
  0.3370137479453195  0.6034863360264983  0.4999968924681435
 -0.0015907315799135  0.4973994784606910 -0.0000031144680267
  0.1686715408119192  0.6697496034979756 -0.0000031313319561
 -0.0005124643056732  0.7370418981550003  0.4999968469970130
  0.1668812860641084  0.9044015890366485  0.4999968295783276
  0.8337354053977855  0.3247914096216030 -0.0000031608166480
  0.8213889735820110  0.0785313310636828  0.4999968250846038
  0.5085281572733195  0.0253374279439904 -0.0000031365282317
  0.6585647034016342  0.1669854835885446 -0.0000031571865388
  0.5168479543967081  0.2405018978475261  0.4999968699106542
  0.6707260599442811  0.4191809102285203  0.4999968155145351
  0.8350548319437000  0.8291032016848165 -0.0000031569388484
  0.8337590546939485  0.5772353895824361  0.4999968282679126
  0.5008480647863613  0.5047911612252188 -0.0000031582970336
  0.6670192814007856  0.6623881558491020 -0.0000031611871543
  0.5013746686964630  0.7639651198747411  0.4999968368078598
  0.6665484653935899  0.9134559103538310  0.4999968471858491
  0.3399058894624699  0.3409252162008052 -0.0000031728305561
  0.3355055282744780  0.0968652591599506  0.4999964439556874
 -0.0025115313856589 -0.0047547975301207 -0.0000031371895928
  0.1703890021993564  0.1644164014284270 -0.0000031267383780
  0.0031640782220993  0.2394450462443868  0.4999968431230025
  0.1711576339569467  0.4121218790489247  0.4999968129214258
