SCAR file written by OVITO              
   1.0000000000000000     
    24.9292173956748790    0.2072407205478300    0.0000001410564218
     0.1589937978361190   17.6188828067405048   -0.0000001006874550
    -0.0000000577525734   -0.0000000232543925    5.1048428690839582
   Mg   Nd
    88     6
Direct
  0.2918550097986590  0.1777101809401408 -0.0000031082380394
  0.3874288526376433 -0.0005082767009580  0.9999968729731147
  0.2636341353878739  0.0061774402971593  0.9999968888871408
  0.4630411689166722  0.3349470659467118 -0.0000031246566396
  0.2922519357146624  0.4581672294318891  0.4999969052490664
  0.3995587948301103  0.2757197786613487  0.4999968905412802
  0.1389330825317676 -0.0110206722095361 -0.0000031237420545
  0.0372763478964917  0.1697047582964205 -0.0000031155131635
  0.4916160569551326  0.1584008246114798  0.4999968774210652
  0.4207233957196813  0.1763888174429522 -0.0000031301105712
  0.0341271090169297  0.4426533101331456  0.4999968681599599
  0.4126445295974958  0.4393695464436968  0.4999968764736251
  0.2035527152029170  0.3416665048318989 -0.0000031319169965
  0.2186946744762097  0.0892593122336400  0.4999968865327347
  0.1235780724373116  0.2609980793658290  0.4999968766523773
  0.0880035376617654  0.0900344164980732  0.4999968691929976
  0.2540853401163058  0.2670050310972489  0.4999968860370158
  0.0740441003374625  0.3408187520279306 -0.0000031236652873
  0.2820095589907884  0.6757595654954649 -0.0000031079567507
  0.3620814286128785  0.5303517421682865  0.9999968749719483
  0.2333872487672733  0.5114444584958335  0.9999968750379805
  0.4709933820712914  0.8578199193791967 -0.0000031157647447
  0.3247457788134704  0.9342705833811508  0.4999968857175677
  0.4004011118891859  0.7950033175554421  0.4999968781193863
  0.0991834613146075  0.5092876782551137 -0.0000031086357008
  0.0254229180000972  0.6594988281875465 -0.0000031063776155
  0.4596465011015130  0.5937138638031761  0.4999968828745814
  0.4159752445193715  0.6895468452465103 -0.0000031150315832
  0.0737693580539936  0.9191187184353840  0.4999968651286790
  0.4516401144141198 -0.0234682440605535  0.4999968883065996
  0.2102786961102628  0.8286381494089538 -0.0000031061659802
  0.2180409613945536  0.6108839491980477  0.4999968700594847
  0.1463265178632717  0.7659480803748112  0.4999968659508259
  0.0906781529252248  0.6039802938794061  0.4999968568775530
  0.2734594252954299  0.7750531606153676  0.4999968833349676
  0.0824521545753341  0.8252706732937236 -0.0000031186013446
  0.7789441488750704  0.1359420077264626 -0.0000031214989686
  0.8742455198883311 -0.0210490368321895  0.9999968854655037
  0.7488138943752307 -0.0406100826518400  0.9999968859749384
  0.9302481030780740  0.3314569578837048 -0.0000031107794453
  0.7867902815590175  0.4080700851732394  0.4999968770135521
  0.8655430249523436  0.2523016878388908  0.4999968848524656
  0.6247675273924342 -0.0516773692007943 -0.0000031262173998
  0.5535463853116489  0.2211195236157666 -0.0000031171675564
  0.9569050349642348  0.0846861055140596  0.4999968860744589
  0.9096785432923158  0.1579587116741789 -0.0000031086237907
  0.9118237720622939  0.4253210826503897  0.4999968745699230
  0.6770662948799856  0.2840873663987347 -0.0000031184643731
  0.7140084367369535  0.0546052506090517  0.4999968734279241
  0.6215150181758213  0.2156210286851820  0.4999968857570656
  0.5898522098617166  0.0496786942111903  0.4999968774470802
  0.7440614645399910  0.2320195384468977  0.4999968891159427
  0.5921953982994880  0.4210041377216190 -0.0000031192786075
  0.7721826027209828  0.6266848385439816 -0.0000031127159483
  0.8455024435785777  0.4767050471516278  0.9999968873753829
  0.7193504452374589  0.4545839873401203  0.9999968691574610
  0.9516207602100348  0.8168791084273890 -0.0000031064970984
  0.8085031290582747  0.9021573567906945  0.4999968625899278
  0.8900824597691710  0.7504163458737682  0.4999968600087838
  0.5348948476064552  0.6390191643356874 -0.0000031168932659
  0.9640667123613604  0.5993022316553001  0.4999968563189157
  0.8975341003297389  0.6494056371821764 -0.0000031215681029
  0.5578841512720981  0.8891337914358753  0.4999968882301165
  0.9377775156273177  0.9154444921851819  0.4999968768473069
  0.7042439282049293  0.7826545980825136 -0.0000031057341276
  0.7126431101674706  0.5596302581969927  0.4999968746043679
  0.6364377836726122  0.7097077736254831  0.4999968730811676
  0.5798111279969361  0.5376668243408149  0.4999968806986743
  0.7642617291912265  0.7303614426774351  0.4999968765525288
  0.5856125810343079  0.7880044383317728 -0.0000031204389911
  0.3357452170162722  0.8338938075851142 -0.0000031293676694
  0.3436415923554342  0.6305498365792854  0.4999968755614551
 -0.0289609178876215  0.4954941520723177 -0.0000031213510108
  0.1541440309850505  0.6648846033573235 -0.0000031058884464
  0.0177162737370066  0.7635650178377801  0.4999968689923539
  0.2008168038892839  0.9232879928675425  0.4999968788573700
  0.8021371235176774  0.3078140329860203 -0.0000031283833824
  0.8360829748463815  0.0759168970607550  0.4999968851336757
  0.5129596149308889  0.0396623545881048 -0.0000031294277822
  0.6539973458445173  0.1138969828340499 -0.0000031162441587
  0.5331444339168711  0.3559739925420063  0.4999968882915581
  0.6611954256098643  0.3888653805151828  0.4999968923023874
  0.8255849015125251  0.8021850510578448 -0.0000031161476790
  0.8397867105741513  0.5804513949268558  0.4999968727782038
  0.4825391782884972  0.4947813117672235 -0.0000031249676340
  0.6500654784731879  0.6054644668862923 -0.0000031311983171
  0.5132684432667709  0.7384516520421371  0.4999968819138084
  0.6826525217250472  0.8809484306666845  0.4999968753939331
  0.3312283903513418  0.3480990323604412 -0.0000031685836194
  0.3495846702102194  0.1112283669340005  0.4999968590000566
  0.0080255192231439 -0.0031492798177460 -0.0000031221625668
  0.1651793319399562  0.1745329793776514 -0.0000031307102662
 -0.0034945618261595  0.2576229869004374  0.4999968653015920
  0.1633196092679826  0.4288825309694496  0.4999968904967417
