POSCAR file written by OVITO            
   1.00000000000000     
    25.1318580020821933   -1.2214365265598628    0.0000004075312965
    -0.8645033510405740   18.3629935731390574   -0.0000003915282859
     0.0000000886951659   -0.0000001126401378    4.9363184164826821
   Mg   Nd
    90     6
Direct
  0.2935789688642746  0.1726069882613246 -0.0000026939683720
  0.3795625812935687  0.0016885331355360  0.9999970866705352
  0.2539214602335180  0.0022838977771741  0.9999969248128011
  0.4682050329965617  0.3387171749848906 -0.0000031182539372
  0.3004438941702502  0.4380526222316446  0.4999968667055791
  0.3911534439658070  0.2604017044106670  0.4999968678032843
  0.1281590087153180 -0.0135541471312786 -0.0000031222173077
  0.0427909593834960  0.1590018454798688 -0.0000031281354971
  0.4648801189183804  0.0948013916203893  0.4999968799010676
  0.4189772879344556  0.1740269169233149 -0.0000030506682179
  0.0390085866723199  0.4171934056177259  0.4999968854883547
  0.4214731991374670  0.4267999912622855  0.4999968710541219
  0.2111365376594871  0.3292142215229797 -0.0000029022427317
  0.2055429293722174  0.0668257111634501  0.4999968877909368
  0.1261133515174054  0.2448422030317211  0.4999968663037931
  0.0810356955295943  0.0755116062531671  0.4999968791691974
  0.2541468497375389  0.2516642212700165  0.4999967169313672
  0.0841477898489353  0.3286901996514153 -0.0000030843152568
  0.2932333103668118  0.6703940440966961 -0.0000031130578682
  0.3769517057699493  0.5173221190892149  0.9999968770782482
  0.2505541015690575  0.5003146567684781  0.9999969048280428
  0.4604011895914738  0.8451075401521937 -0.0000031155736417
  0.2939583856749306  0.9168784634334247  0.4999968712071228
  0.3795870357448463  0.7648571607204755  0.4999968735659986
  0.1232071117370084  0.5018854191941212 -0.0000030201398840
  0.0441185959166343  0.6593192126359702 -0.0000030914852090
  0.4613638468861022  0.5936121346582977  0.4999968840414779
  0.4197641659435793  0.6806225057343538 -0.0000031185343463
  0.0452610935389457  0.9025358177613590  0.4999968676513329
  0.4193154511181799  0.9304620724454679  0.4999968249027154
  0.2110409332192558  0.8317119123426315 -0.0000031181670468
  0.2131014606418457  0.5868462750271580  0.4999968749035527
  0.1254828385007935  0.7431905913680058  0.4999968758103253
  0.0862624068696863  0.5779739901301842  0.4999968680052620
  0.2529350857209656  0.7518603980356671  0.4999968850541117
  0.0833998722052391  0.8251725638551899 -0.0000031202509329
  0.7902045138737867  0.1636240376553373 -0.0000031453394354
  0.8675004878344689 -0.0040468282739295  0.9999968585183936
  0.7464955699909199 -0.0014331070014899  0.9999968489838630
  0.9561029280099221  0.3320523352487384 -0.0000031346780497
  0.7914370952795302  0.4142957484691902  0.4999968707881481
  0.8716520038583780  0.2415916341926336  0.4999968572278222
  0.6252314055626323  0.0020291154032588 -0.0000031393637531
  0.5454870264349850  0.1729276616017690 -0.0000031225848446
  0.9444349973817411  0.0727231775111663  0.4999968515257833
  0.9168205733048221  0.1596835799277043 -0.0000031338857844
  0.5456373429115609  0.4235759852473491  0.4999968838197407
  0.9160910176443334  0.4065014895978848  0.4999968824184153
  0.7108954671081437  0.3342276751044494 -0.0000031281292911
  0.7043035381224193  0.0836199232014786  0.4999968652894343
  0.6315275048594314  0.2528024306683809  0.4999968665112912
  0.5845692168240879  0.0884593022375375  0.4999968824863885
  0.7515351106861617  0.2475582001152823  0.4999968659922700
  0.5897001635997390  0.3380275354460028 -0.0000031320930420
  0.7933246800169798  0.6646497731591600 -0.0000031381418252
  0.8741478886833530  0.4913425186389183  0.9999968656251822
  0.7504971438268485  0.5001773818617253  0.9999968578595588
  0.9593892123876286  0.8169315394455683 -0.0000030992286722
  0.7915273948418607  0.9132114914044736  0.4999968605258100
  0.8768036051522269  0.7403715188355319  0.4999968743589013
  0.6260721638225620  0.5047815556774212 -0.0000031135767909
  0.5443908913950185  0.6710517774852522 -0.0000031081496259
  0.9582426748321115  0.5733686207308271  0.4999968736730442
  0.9176835272621969  0.6544616408627997 -0.0000031303187435
  0.5443969459230383  0.9218054495228429  0.4999968743575222
  0.9175939590877766  0.9060770339071345  0.4999968692685740
  0.7109328518877712  0.8321959320552978 -0.0000031279333856
  0.7100260498303278  0.5843602745467050  0.4999968578862321
  0.6270933288350881  0.7524212280624528  0.4999968728040411
  0.5859363024914150  0.5885046316339856  0.4999968881707663
  0.7518370159359460  0.7481803974426918  0.4999968698920669
  0.5856164298801559  0.8361763869646848 -0.0000031195760298
  0.3349557680201172  0.8357151456032568 -0.0000031281399723
  0.3385207648716491  0.6024270901716108  0.4999968750322221
 -0.0023235239323125  0.4977382626475613 -0.0000031281625818
  0.1690467482626915  0.6667588038007340 -0.0000031319532879
  0.0013878337823807  0.7372074060890540  0.4999969006185866
  0.1697316258712732  0.9038933214825202  0.4999968787616376
  0.8324212025486839  0.3280045043925638 -0.0000031351599786
  0.8241260817560953  0.0794357168094310  0.4999968663535973
  0.5034914058088102  0.0082001669650745 -0.0000031208200369
  0.6678063324024613  0.1681913517757831 -0.0000031506887564
  0.5117045666138497  0.2574855893404589  0.4999968818230732
  0.6682172746895255  0.4196359252442127  0.4999968752531899
  0.8366726227774947  0.8292424202097333 -0.0000031349027442
  0.8339783854685174  0.5780989610250951  0.4999968711497639
  0.5006590226182451  0.5062790991070778 -0.0000031137078840
  0.6688885455479555  0.6684247557053158 -0.0000031259193030
  0.5027996477411241  0.7573300732670344  0.4999968901275552
  0.6681048553545669  0.9170726700781984  0.4999968685933218
  0.3360920935330673  0.3383690061623134 -0.0000030753251851
  0.3353994845465097  0.0938060693180563  0.4999961854729350
 -0.0019866255410250 -0.0057509163330082 -0.0000030947559091
  0.1684161546757235  0.1625842312368853 -0.0000031193779016
  0.0013275757381938  0.2399525113367134  0.4999969105421396
  0.1697613844990902  0.4105801790589664  0.4999965475325772
