POSCAR file written by OVITO            
   1.00000000000000     
    25.8501540025722001    1.6438587970324983    0.0000090382352463
     1.1524845730456927   16.7665730088352873    0.0000250749909095
     0.0000015765562611    0.0000075640662523    5.1575118695117057
   Mg   Nd
    86     6
Direct
  0.3090540963306902  0.1797152197820072 -0.0000047193778908
  0.4021107599799261 -0.0096338897229504  0.9999972600104241
  0.2738549422640517 -0.0035020199735511  0.9999975241773887
  0.4672108061914265  0.3342520285039186 -0.0000086334695373
  0.3095165988301836  0.5082293495912751  0.4999888383317130
  0.3805480775112940  0.2473920327028759  0.4999934079958702
  0.1515054634365959 -0.0051641467667692 -0.0000018094114227
  0.0649337195526247  0.1901037811749612 -0.0000032475474931
  0.4600816449347301  0.0538723656315177  0.4999963167107353
  0.4292641157696909  0.1627749962825795 -0.0000054146949322
  0.0292528488380740  0.4270893109373201  0.4999959909591262
  0.4185358271386963  0.4166107757236969  0.4999893633312620
  0.2038928385984448  0.3584861263335372 -0.0000065621975702
  0.2131182426162935  0.0468917240649893  0.4999972823381634
  0.1298373949691190  0.2791553488510193  0.4999960150851057
  0.0961294580168760  0.0859803600651345  0.4999973294137768
  0.2550676512844351  0.2694170946897209  0.4999943688532436
  0.0855777665482325  0.3587085040225995 -0.0000039869459224
  0.3035326143154944  0.6757184356774902  0.0000098015036509
  0.3828202245427441  0.5227768823878820  0.9999856658382158
  0.2475000394527396  0.5268559730935687  0.9999893930587174
  0.4790028631338534  0.8286575654185253  0.0000004844793976
  0.2843054778308660  0.8777426107712516  0.4999992187851373
  0.3634493716528064  0.7001157057181081  0.5000084680914989
  0.1093505499123779  0.5282502404222994 -0.0000076118524999
  0.0418695848974030  0.6947282703749921 -0.0000030553543127
  0.4314329356668057  0.6726022901098606  0.0000083597009420
  0.0316878532056194  0.9029831649905549  0.4999989271711445
  0.4108360154597516  0.8821646399073895  0.4999991902451558
  0.2229145835857748  0.8259943913951836  0.0000000479976010
  0.1097040429636636  0.7315058137960598  0.5000028619604734
  0.0541635664852412  0.5901159089051985  0.4999941185171100
  0.2351512278070506  0.6784345435091633  0.5000067688782486
  0.0960874570187339  0.8439693281491956  0.0000003889665531
  0.8049745185846525  0.1816770314775417 -0.0000035447400531
  0.8878638648705328  0.0210388911524281  0.9999971573698879
  0.7643817271104365  0.0112942839611151  0.9999967940315897
  0.9656252447135431  0.3633532061557811 -0.0000040383460861
  0.7770597745058844  0.4003904308133801  0.4999965547642087
  0.8633832393745973  0.2404034204860180  0.4999966684830073
  0.6431076972072891  0.0020636751854272 -0.0000032194781940
  0.5568528881836278  0.1643747787065295 -0.0000052857957631
  0.9428077231174500  0.0788749500524434  0.4999974113652676
  0.9298259694045362  0.1888836055386282 -0.0000030133743782
  0.5372752112186181  0.4005273865694842  0.4999922974194477
  0.9029278566348171  0.4107013787766515  0.4999961682223175
  0.7196930267892679  0.3408485176894287 -0.0000039363437983
  0.6979876747252343  0.0618947375078257  0.4999964704188519
  0.6167937539826229  0.2249409635914332  0.4999949498905543
  0.5779799611256455  0.0551140364236972  0.4999961935961111
  0.7387467924704582  0.2317603447146102  0.4999961514811117
  0.5935983876756211  0.3333101433542985 -0.0000060221461325
  0.7996417906217046  0.6809793411664935 -0.0000028710639164
  0.8780832493682031  0.5219486987178547  0.9999966157764960
  0.7567922045294814  0.5100534670146739  0.9999969161993305
  0.9684260750280359  0.8568635286872576 -0.0000024485826927
  0.7768300021305430  0.9016883576498373  0.4999970626405391
  0.8545149171136512  0.7427278955570136  0.4999969086262649
  0.6288841414281002  0.5028213637252891 -0.0000040191244012
  0.5544776566290458  0.6632088015927445  0.0000038812368013
  0.9329261032081350  0.5829242286106459  0.4999965466219141
  0.9202246554271567  0.6936801749188550 -0.0000030993468959
  0.5333920280710180  0.8845941190434263  0.4999988462387801
  0.9042320922027371  0.9117784970421347  0.4999972185640180
  0.7220439910408951  0.8402680806011872 -0.0000025277797902
  0.6900369491529404  0.5597097617815781  0.4999971656021173
  0.6093808637869306  0.7188960877478759  0.5000006211366839
  0.7320676738545041  0.7302901067110341  0.4999976644519783
  0.6008079609101982  0.8308820487121918 -0.0000010136510352
  0.3519462419483835  0.8339244373714370  0.0000003450892474
 -0.0049231844405995  0.5334059835580400 -0.0000040267341664
  0.1672166821971220  0.6712685700341010  0.0000065209043207
 -0.0231033518150576  0.7461369942328269  0.4999971302105707
  0.1551029516228851  0.8913645816981196  0.4999993356770792
  0.8452299856407308  0.3491891469431426 -0.0000035486346453
  0.8189681479816119  0.0701060453107614  0.4999967753868776
  0.5233630217732136 -0.0050755323191627 -0.0000028059015221
  0.6819297029342589  0.1724092156432278 -0.0000041847319143
  0.4979746257496938  0.2280469710711449  0.4999934270273895
  0.6558271401411236  0.3913302647794281  0.4999956589633575
  0.8437855255803031  0.8523439523233841 -0.0000030729077472
  0.8128594110589999  0.5699115305469948  0.4999968484795194
  0.5036635546236516  0.5048943604694659 -0.0000096598604846
  0.6770831341323954  0.6693272828733171 -0.0000015469903864
  0.4883161597099477  0.7138846165926457  0.5000048043020414
  0.6543401629447836  0.8911545654717457  0.4999977076315297
  0.3299867703530165  0.3601279648549496 -0.0000083335782102
  0.3342844236827610  0.0727151425895545  0.4999964000667342
  0.0206899745854806  0.0275239925207923 -0.0000021664277959
  0.1866868853895503  0.1732869376321276 -0.0000036576717442
  0.0007985050175428  0.2431269297259904  0.4999962963440160
  0.1790546552477200  0.4762262391185955  0.4999922664426233
