SCAR file written by OVITO              
   1.0000000000000000     
    24.7936019171021762   -0.5177283726440399    0.0000000580732508
    -0.3850595148485588   17.9742527952090292   -0.0000015484745804
    -0.0000005894675459    0.0000010409581467    4.9638783015758694
   Mg   Nd
    86     6
Direct
  0.3314016135419374  0.1684251929299792 -0.0000030029971682
  0.3667935864033348  0.0053702481481036 -0.0000030615294981
  0.2453837569036241 -0.0052484654800215  0.9999969091251405
  0.5675793795579469  0.3372991905023910 -0.0000030174320840
  0.3135922517837365  0.4120849693437340  0.4999968126186407
  0.3602613416680986  0.2609345331274066  0.4999963733900825
  0.1192835178376248 -0.0269572687417134 -0.0000031688779827
  0.0407241100185055  0.1544042245684650 -0.0000031199520435
  0.5684017795558891  0.1157231279155753  0.4999969261833227
  0.5127945190704692  0.1802961940804872 -0.0000029551280639
  0.0427228822840167  0.4093096790865803  0.4999967800341700
  0.4332186658246169  0.4444239117304120  0.4999963469518340
  0.2687904668354503  0.3167507632276161 -0.0000031829006433
  0.3016407200592651  0.0725771150700706  0.4999968418487651
  0.1193170096771605  0.2289966418500911  0.4999968820237515
  0.0692690879141206  0.0694604784079474  0.4999968094482989
  0.2428075878667100  0.2203891956865072  0.4999968462246572
  0.0859458154408181  0.3200299563267941 -0.0000031975933734
  0.2880910751774884  0.6589395189885443 -0.0000031382872075
  0.3771680003402972  0.5053867577891322  0.9999969587093557
  0.2513519080494815  0.4857964215881733 -0.0000031977170870
  0.4475310482901492  0.8449502135043393 -0.0000029875485180
  0.2738107846869937  0.9031819597274061  0.4999968672611775
  0.3698206001934702  0.7574116469178240  0.4999969306632582
  0.1254653260137997  0.4907804048625385 -0.0000031915139684
  0.0376502958321916  0.6507259750687303 -0.0000032351512963
  0.4608675398171799  0.6085766734696375  0.4999969247803696
  0.4124326579241328  0.6772782298887757 -0.0000030460478524
  0.0476330696364967  0.9003803043465125  0.4999968161200546
  0.4055344421205596  0.9256932078234510  0.4999969722566021
  0.1946412403324199  0.8309394726481245 -0.0000031571458418
  0.2081435020655052  0.5713955401006865  0.4999967937849361
  0.1210517507218344  0.7485564359228235  0.4999967978051590
  0.0841971872364721  0.5732572911124447  0.4999967867601887
  0.2443960908024206  0.7371959761678489  0.4999968953293706
  0.0680223159141957  0.8147986174513933 -0.0000032039639021
  0.7779039308337171  0.1647190380301215 -0.0000031397926543
  0.8586118361110125 -0.0020880758107792  0.9999968323107897
  0.7349920440287441 -0.0010375598877186  0.9999968897853719
  0.9513086792162931  0.3292494594395229 -0.0000031177229076
  0.7777646072992753  0.4136939586125338  0.4999969302173204
  0.8639574531476509  0.2399425997163720  0.4999968338548866
  0.6123746203603505  0.0206977788243542 -0.0000030375580308
  0.9338038440754727  0.0717598246067097  0.4999968090294473
  0.9106235968297294  0.1600818245804836 -0.0000031725418803
  0.9119261796861997  0.4030122285848367  0.4999968031909742
  0.6986928159534769  0.3489190542649124 -0.0000030761094382
  0.6890676256142430  0.0923073856593645  0.4999968936695383
  0.6285879867930056  0.2900589869273697  0.4999969395903394
  0.7429713432841746  0.2499966378627037  0.4999968801666640
  0.7892841524162967  0.6674823606199035 -0.0000031358134822
  0.8753507658562040  0.4880840226390088  0.9999968344843421
  0.7540695278076986  0.5052836773332731  0.9999969615309973
  0.9461084926466617  0.8143086166997330 -0.0000032382988865
  0.7805464901435586  0.9119722645175086  0.4999968721952944
  0.8680008037992677  0.7400139947908041  0.4999968071127592
  0.6287151885940333  0.4941151509563987 -0.0000030440263343
  0.5379976872515796  0.6839102626318698 -0.0000030151091009
  0.9565297242659850  0.5692092233557091  0.4999967916652986
  0.9125663279906892  0.6511859428067639 -0.0000031992658877
  0.5321742292910734  0.9431454682949553  0.4999969566499753
  0.9104080310103730  0.9053646527152286  0.4999967954242049
  0.6984711710724260  0.8308456593878567 -0.0000030611572280
  0.7029670934804580  0.5684511283250993  0.4999969513682093
  0.6184736796419592  0.7594512158664432  0.4999969762387312
  0.5827237080884476  0.5948242965699609  0.4999969634681197
  0.7412921084543775  0.7426269388316105  0.4999968985037585
  0.5734957245998281  0.8536325740668126 -0.0000030164686102
  0.3215492946089590  0.8321527997635489 -0.0000030651578769
  0.3348369347531875  0.5863098190134873  0.4999968558591962
 -0.0010281106726660  0.4892577534286179 -0.0000032089235196
  0.1621042945724181  0.6611720407422417 -0.0000032127999118
 -0.0048897606756276  0.7371057372289423  0.4999967708335389
  0.1838710217497860  0.0252618007356288  0.4999968201374776
  0.8234355049120516  0.3289569584886641 -0.0000031155419469
  0.8105716520092393  0.0793605299235662  0.4999968677836409
  0.4879244804798410  0.0125525131191513 -0.0000030734963602
  0.6498171268860846  0.1872029987970137 -0.0000030817210450
  0.5019703492656011  0.2741608650334642  0.4999964324515503
  0.5551694614634684  0.4305718451547578  0.4999969699376096
  0.8245867709877664  0.8319187947558566 -0.0000031581915170
  0.8301546627361389  0.5743091429240418  0.4999968367535371
  0.5021687910582993  0.5090047434232549 -0.0000030379330335
  0.6637773967185284  0.6622804462445426 -0.0000030456633653
  0.4952804484856883  0.7735742132160552  0.4999970024950046
  0.6566807229411533  0.9251142755317033  0.4999969491168167
  0.4276664926507106  0.3296072495550136 -0.0000017613410369
  0.4323723018718921  0.1123002249904336  0.4999969999557213
 -0.0094284425611552 -0.0100916857793093 -0.0000032125852635
  0.1696368598865602  0.1489228024239649 -0.0000033438629520
 -0.0042621779957678  0.2346688579032962  0.4999967432502751
  0.1779287288251159  0.3874949664035715  0.4999967505181744
