POSCAR file written by OVITO            
   1.00000000000000     
    25.5006628505615964    1.6411260421855673    0.0000001506654183
     1.1709530550100171   17.2220549517569061    0.0000000688636995
    -0.0000000378501062   -0.0000000007978839    5.1832406123828125
   Mg   Nd
    89     6
Direct
  0.2894895399869254  0.1499159149652838 -0.0000031431181553
  0.3757525905959385 -0.0391878486099066  0.9999968528150340
  0.2560548634617303 -0.0184942866831342  0.9999968565931381
  0.2970938305090665  0.4299653372755105  0.4999968488562238
  0.3962201856852995  0.2342298891147551  0.4999968464044212
  0.1334230933119652 -0.0208500757318842 -0.0000031459944607
  0.0377787890476818  0.1722426116254681 -0.0000031439553581
  0.4789325489365959  0.0814167675263198  0.4999968457437592
  0.4138572073331772  0.1340350086633087 -0.0000031360510500
  0.0405742726648861  0.4514897709564165  0.4999968568783367
  0.4198895452076973  0.4078291663173831  0.4999968511007197
  0.2053873750478939  0.3244560328683608 -0.0000031408340969
  0.2188242573411927  0.0730537996820219  0.4999968544625383
  0.1292913480760536  0.2564729829154974  0.4999968560492759
  0.0897603330529976  0.0882223871235017  0.4999968549918939
  0.2569499777745072  0.2476828508423892  0.4999968562530430
  0.0782276544713623  0.3398135899880786 -0.0000031459199668
  0.2819218162188451  0.6470168082584887 -0.0000031507907856
  0.3601845111421952  0.4918187036839415  0.9999968529239596
  0.2364267862667479  0.4886473807021483  0.9999968597795668
  0.4534291179408934  0.8039480975292362 -0.0000031556798364
  0.3162781098885064  0.9022113382320147  0.4999968530350667
  0.3972683680159443  0.7469205518888432  0.4999968447424506
  0.1027431401744790  0.5059564574984344 -0.0000031475914332
  0.0254875043030046  0.6645256927181722 -0.0000031490201356
  0.4713091319832584  0.5792682707010486  0.4999968434854359
  0.4078003936379687  0.6425996275637176 -0.0000031573806835
  0.0701555997095677  0.9193970943896248  0.4999968525203750
  0.4392832022682582  0.9120503952788412  0.4999968521127295
  0.2070998167210544  0.8102046222579677 -0.0000031482145467
  0.2207877127510000  0.5932941242415003  0.4999968554087904
  0.1449511792704496  0.7579026647877323  0.4999968534325666
  0.0919299708113528  0.6055685995915555  0.4999968554530964
  0.2709023993217150  0.7481380155427879  0.4999968515643854
  0.0804751396376938  0.8211249144287652 -0.0000031506141677
  0.7805698466558201  0.1662444453891940 -0.0000031550275788
  0.8700270989490114  0.0012583694342886  0.9999968497841906
  0.7434724585779953 -0.0055274450635910  0.9999968461031035
  0.9356357847154961  0.3474602004881936 -0.0000031492194057
  0.7973708687055310  0.4423890384257186  0.4999968514329784
  0.8764598533538092  0.2818126493036328  0.4999968511386260
  0.6179340772470218 -0.0149855615515519 -0.0000031568494815
  0.5343128438576035  0.1449848941373779 -0.0000031568207377
  0.9633443464194974  0.1042612318367527  0.4999968499870974
  0.9114089758248459  0.1770851773416345 -0.0000031519346498
  0.5502017386903907  0.4211265145597233  0.4999968380432031
  0.9196815588169586  0.4480457331429882  0.4999968600162855
  0.6906802788413225  0.3247629157126358 -0.0000031614633386
  0.7233207073044653  0.1015477101871607  0.4999968453750755
  0.6358244545490143  0.2627098303012779  0.4999968393171423
  0.6005310254419555  0.0921400097401882  0.4999968419485057
  0.7573141925981191  0.2724474688596924  0.4999968436641313
  0.5678209150532196  0.3141042100411553 -0.0000031627748344
  0.7741304144635439  0.6628924993711459 -0.0000031502163918
  0.8527634490692471  0.5039483421713969  0.9999968470669899
  0.7294394897370103  0.4948200792893152  0.9999968414198828
  0.9473998538089033  0.8313959104891060 -0.0000031521297019
  0.8089887621164676  0.9386966441212439  0.4999968492837099
  0.8879929350004732  0.7754094975288391  0.4999968520441339
  0.6054824068079865  0.4833863229075792 -0.0000031636403339
  0.5286949226115073  0.6429174200987764 -0.0000031590779007
  0.9656217023572310  0.6152042783241597  0.4999968550638861
  0.8985771329974782  0.6697370242803069 -0.0000031502867115
  0.5634366966947133  0.9218794185397904  0.4999968445726441
  0.9344699327214558  0.9369095244232947  0.4999968484688956
  0.6968672384349329  0.8237442627151577 -0.0000031526373009
  0.7192277469934548  0.6019432445481754  0.4999968495255715
  0.6417270927466223  0.7621285760794140  0.4999968468959348
  0.5959790422973686  0.5913926868057994  0.4999968438132006
  0.7645119556894111  0.7707228943727907  0.4999968513197036
  0.5743232461190357  0.8141719498670302 -0.0000031584904430
  0.3294257135555682  0.8011416038131475 -0.0000031486681840
  0.3481603074736755  0.5911115912617031  0.4999968499560265
 -0.0231219369776095  0.5050528065379256 -0.0000031479862290
  0.1557024705687015  0.6532706569619324 -0.0000031458002131
  0.0152646553650769  0.7730767741386173  0.4999968486169164
  0.1943775170226633  0.9102557115400167  0.4999968521183901
  0.8117216160707076  0.3359854255668156 -0.0000031559267590
  0.8445429803611444  0.1080201046782307  0.4999968468954301
  0.4944607040650214 -0.0248767139288270 -0.0000031543436955
  0.6559585541161279  0.1550606259075871 -0.0000031570116856
  0.5131709069787679  0.2545321360953950  0.4999968357423916
  0.6748354097697441  0.4323549144917688  0.4999968429126492
  0.8209940336508097  0.8313284785167099 -0.0000031520503465
  0.8427796907722951  0.6101213998221299  0.4999968556555629
  0.4813263833375641  0.4670270628078859 -0.0000031570901796
  0.6509864889749246  0.6534053629895923 -0.0000031567600303
  0.5193556295168594  0.7521199588194470  0.4999968458792949
  0.6859433307075306  0.9321545914831288  0.4999968484080512
  0.3343684970102296  0.3149489971824257 -0.0000031127238930
  0.3448454859450109  0.0768340753711164  0.4999968598190567
  0.0042788520682737  0.0021128810425782 -0.0000031502664372
  0.1646444911925979  0.1609700938940184 -0.0000031450390755
  0.0046826700327209  0.2714121364614120  0.4999968603040416
  0.1682197555847214  0.4210582461913069  0.4999968642005989
