POSCAR file written by OVITO            
   1.00000000000000     
    25.7661886206381396    1.9571019273265782   -0.0001159825292717
     1.3901810623242377   17.0262851640353681    0.0001311878782122
    -0.0000253401184978    0.0000406478274741    5.1777765000984228
   Mg   Nd
    87     6
Direct
  0.2826234859663187  0.1359271051253705  0.0000061832240065
  0.3719792659789596 -0.0319897111980985  0.0000131272733819
  0.2516119388174740 -0.0289245875189176  0.0000061214766118
  0.4539767173302889  0.3164040355063615  0.0000186405840321
  0.3046743302613906  0.4268487887418997  0.5000063015096243
  0.3989585835710763  0.2564014062095769  0.5000120071015877
  0.1309729733344893 -0.0313303186698280 -0.0000031502256745
  0.0324698725637735  0.1645251009058323 -0.0000066976274086
  0.4813650171455356  0.0918622462120726  0.5000085026420202
  0.4149422215383863  0.1481070225332354  0.0000102801127556
  0.0409014795963084  0.4478471121451814  0.4999919060633345
  0.4326418199108446  0.4221084572681608  0.5000345987988718
  0.1927361352062526  0.3241512800074718  0.0000040023003096
  0.2224054568261752  0.0702433578614278  0.5000047197042716
  0.1247423249607828  0.2622767604940381  0.4999947446745329
  0.0885052094353232  0.0836227504628124  0.4999978421797903
  0.2485194318603449  0.2453789104340476  0.5000063535333079
  0.0692472404896225  0.3355590999335350 -0.0000098775717940
  0.2876493054554113  0.6424006821256695  0.0000130739605487
  0.3664698144640995  0.4779986438289275  0.0000213590770853
  0.2418406596504886  0.4827119649367781  0.0000029620425503
  0.4530867540655052  0.8093179358976627  0.0000174418014295
  0.3171490765554633  0.9110886369308262  0.5000104322224626
  0.3989622190038868  0.7512121854911468  0.5000186505648315
  0.0983159926562473  0.4999749651995360 -0.0000050719530376
  0.0209059745981564  0.6585425255478811 -0.0000057570728647
  0.4780354941416569  0.5882693590134510  0.5000506805176687
  0.4109041541887793  0.6422564630669906  0.0000295591635330
  0.0716627463228023  0.9116159211137287  0.4999957476886489
  0.4386279404076346  0.9197254613116537  0.5000135273418480
  0.2073970785882950  0.7996847577020447  0.0000041948942081
  0.2288418395279308  0.5934390700934723  0.5000059894842451
  0.1487432439412315  0.7517943898637915  0.5000021326899892
  0.0893827717135840  0.6072426966955038  0.4999957089435195
  0.2758774861182082  0.7492396692333509  0.5000098867883349
  0.0811388136553559  0.8067459249837100 -0.0000014456795222
  0.7798986780493180  0.1656925830440204 -0.0000461934829427
  0.8679734898494835 -0.0028716639101113  0.9999782215484395
  0.7417230238890141 -0.0058518406401924  0.9999751910921101
  0.9259818952334155  0.3433906546819097 -0.0000168179465726
  0.7956139455650084  0.4435712544829934  0.4999745921280387
  0.8714816863646789  0.2784878036425645  0.4999778425081629
  0.6158397396105096 -0.0112375957803483 -0.0000078910219352
  0.5371793259818001  0.1538280291754761  0.0000053595953878
  0.9628727147634276  0.0978318154779484  0.4999847001381171
  0.9086934416181828  0.1703348384606332 -0.0000218297578434
  0.5596591652243276  0.4239653556768504  0.5001318232578343
  0.9171544784478051  0.4467605594744409  0.4999837816458635
  0.6803302430405608  0.3309691537588459 -0.0001430316740902
  0.7235821062366397  0.1019527192551738  0.4999554173115170
  0.6364751259380114  0.2648505544758377  0.4998698087004533
  0.6018849645146014  0.0962006860558343  0.4999814772825215
  0.7532525301830260  0.2746085361260787  0.4999356019883406
  0.7718675414999825  0.6633517765897383  0.0000096663597688
  0.8481222973490822  0.5029209684782123  0.9999826182730557
  0.9430846137243737  0.8248465673527402 -0.0000088500566473
  0.8069664716310181  0.9376903319695646  0.4999824502495413
  0.8849239330877848  0.7722641057218773  0.4999922992728275
  0.5326019957908222  0.6478866109772533  0.0000371170164458
  0.9633667924485501  0.6113362079158723  0.4999940674661817
  0.8955925797730299  0.6637712472973081 -0.0000063930799203
  0.5622214650972485  0.9277530242981308  0.5000042860635248
  0.9313263487510340  0.9327160072580341  0.4999870828683555
  0.6948273252171681  0.8255229074468261  0.0000023501294395
  0.7193524962196417  0.6007556255934559  0.5000339413091442
  0.6414105684202273  0.7641800125240858  0.5000166332450953
  0.5983263461000087  0.5920404995535253  0.5000447651447342
  0.7622425308405802  0.7714009319718120  0.5000010176128016
  0.5734738899571746  0.8188615545747587  0.0000138849168750
  0.3298560150122189  0.8034647095827847  0.0000125396763895
  0.3558033410117031  0.5883867277864231  0.5000215902636266
 -0.0255639454209493  0.4952832347071452 -0.0000110509475747
  0.1583064775188223  0.6382681248434708  0.0000019470516265
  0.0121855259423567  0.7718714598756466  0.4999936513166333
  0.1944028292910010  0.9073697834774913  0.5000012744890493
  0.8019827630663217  0.3400814898198606 -0.0000338230977027
  0.8437397402461942  0.1049867077233618  0.4999670764815327
  0.4908245572873254 -0.0161010524822058  0.0000092668278015
  0.6576240572356005  0.1555318854697897 -0.0000651523218910
  0.5201585728189685  0.2617315553322063  0.5000168030358901
  0.6779968438811336  0.4375549898170779  0.4998044460934526
  0.8178601304612148  0.8295306368058268 -0.0000083551612042
  0.8400547903962549  0.6090719246810476  0.4999941378469869
  0.4923288366018947  0.4818286083717666  0.0000774661106897
  0.6526792689656743  0.6508218564400263  0.0000347879063960
  0.5205696284498885  0.7581288982916099  0.5000215849678240
  0.6846088790033737  0.9348225101601140  0.4999910136903991
  0.3197393258737864  0.3047708882830618  0.0000075324590294
  0.3501062003640466  0.0914684930839976  0.5000101049400256
  0.0033503850355370 -0.0104327350260540 -0.0000100172337766
  0.1582631190872239  0.1542054283729558 -0.0000006292951456
 -0.0010107409101920  0.2691913680261054  0.4999884007652834
  0.1713707625149340  0.4306327070850877  0.5000003908008883
