POSCAR file written by OVITO            
   1.0000000000000000     
    25.0774604390878508    0.8878748532694015   -0.0000000738778504
     0.6220500980154059   17.3019665689059927    0.0000005641911087
    -0.0000000878375835    0.0000003010829662    5.1874121137618401
   Mg   Nd
    88     6
Direct
  0.2918929914327884  0.1512110362397932 -0.0000029848056488
  0.3768394016956029 -0.0292222296915861  0.9999970022699625
  0.2588324345500014 -0.0111995027754782  0.9999969456994793
  0.4580393857560688  0.3244635199816003 -0.0000030190392841
  0.2959879519645049  0.4309625856928115  0.4999969219470346
  0.3984975412293097  0.2515608496482828  0.4999969578933206
  0.1366306100294240 -0.0138075418095689 -0.0000029682262090
  0.0451930671462692  0.1690042756073593 -0.0000030969281749
  0.4811184930678758  0.1023440095399127  0.4999969480025407
  0.4154060069680572  0.1528089427694297 -0.0000030176408040
  0.0255061764394243  0.4166537050769800  0.4999968969597996
  0.4237493702169495  0.4249813624011883  0.4999969731996696
  0.2040204454950258  0.3249271970833667 -0.0000030661394286
  0.2136949903955148  0.0587953370984903  0.4999969394448431
  0.1187751354186319  0.2432737422135234  0.4999969382058385
  0.0834321989732431  0.0706696691483312  0.4999969566610024
  0.2516505674486344  0.2425783996274618  0.4999969405178264
  0.0803156526285910  0.3355736874970736 -0.0000030944180961
  0.2871521881189948  0.6483934365725365 -0.0000028844932286
  0.3656680154820943  0.4944511396323983  0.9999970369481299
  0.2401223309404251  0.4876667773662560  0.9999969264686600
  0.4560317258941258  0.8209467810238223 -0.0000029813942362
  0.3030650534298144  0.9056610104121514  0.4999969674465717
  0.3951420018679533  0.7592749033485970  0.4999969946149543
  0.1189346798996556  0.5084063585363442 -0.0000031099029370
  0.0475512140915382  0.6735931516483538 -0.0000031727821799
  0.4740017510525373  0.6026964645650091  0.4999969610907667
  0.4109207560481202  0.6548248453054341 -0.0000029460527391
  0.0384715729100537  0.8931914856098104  0.4999969044852496
  0.4381796691748067  0.9268775137648213  0.4999969795167732
  0.2145907396499694  0.8263228846605564 -0.0000028659036157
  0.2105483813359349  0.5836055322588920  0.4999968869104504
  0.1190871289284113  0.7353587384858699  0.4999968908041059
  0.0711261833966802  0.5750688881886470  0.4999968932547920
  0.2580558917541904  0.7435854795154260  0.4999971153048696
  0.0922323534286967  0.8323773609456295 -0.0000031248958153
  0.7943059256010683  0.1570710986696908 -0.0000031041702433
  0.8755213840809555  0.0008072397457274  0.9999968905153136
  0.7542046096710414 -0.0140664140208130  0.9999969075322591
  0.9582709879349623  0.3506581573634108 -0.0000031250216909
  0.8540723112012507  0.2219323857805299  0.4999969360633773
  0.6222311858555141  0.0039433573777107 -0.0000030429227345
  0.5401935276715737  0.1684909968750984 -0.0000030293418611
  0.9354692398671660  0.0713837610717267  0.4999969054678127
  0.9199995325471242  0.1707179013832476 -0.0000031092390285
  0.5558923425133691  0.4538431065874415  0.4999969342978908
  0.8966196146554740  0.3959044647588764  0.4999969032705279
  0.7115330437389980  0.3236018063541464 -0.0000030811315448
  0.7300564299696990  0.1934769419780559  0.4999969326773356
  0.6451267718271171  0.3235709186352711  0.4999969513441418
  0.6048381259364674  0.1303740022234299  0.4999969426423135
  0.7702542475151712  0.3711461263419629  0.4999969391133333
  0.5797250220098790  0.3403761021860088 -0.0000030255751659
  0.7986698219350274  0.6575326458102012 -0.0000031320611410
  0.8773975101719402  0.5024761501058591  0.9999968502393871
  0.7528473680418638  0.4902059436443720  0.9999968875460635
  0.9690827089095375  0.8280082578280034 -0.0000031568750007
  0.7786730061728405  0.8705766497358973  0.4999969378638796
  0.8602493824585601  0.7226442657820272  0.4999969109734035
  0.6186395071123616  0.5064376116103841 -0.0000030524061066
  0.5354404060412526  0.6680852865630191 -0.0000030057690841
  0.9372233583464470  0.5653238857503186  0.4999968671387944
  0.9228590946588930  0.6696054460820833 -0.0000031807148755
  0.5643388027634254  0.9533051867667658  0.4999969415502629
  0.9104840341049084  0.8992540521853508  0.4999969009341575
  0.7143649643500590  0.8215335823522797 -0.0000030736571998
  0.6876750397694289  0.5089386752188685  0.4999969067583394
  0.6453325329162525  0.8133478930908908  0.4999969667018006
  0.5995833537376055  0.6325032316265587  0.4999969347793313
  0.7343664368252778  0.6921681570917391  0.4999969316606750
  0.5802111077055722  0.8368153464651317 -0.0000030201231842
  0.3324710417500504  0.8073281900573788 -0.0000029882951370
  0.3479049001791782  0.5966802767953325  0.4999970127029699
  0.0001782206873315  0.5163693155779604 -0.0000031597804608
  0.1686567279130799  0.6669666466433700 -0.0000031516681236
 -0.0127409452801289  0.7262554687873478  0.4999968934516761
  0.1651389129443145  0.8960613485724048  0.4999971405106611
  0.8382577564935249  0.3278834687939259 -0.0000031186294872
  0.8093711204520030  0.0458195346751229  0.4999969215141353
  0.4957659858361392 -0.0034909852871906 -0.0000030129512340
  0.6668525203665874  0.1643239662788262 -0.0000030692339312
  0.5242127109204238  0.2784916957459471  0.4999969495019368
  0.8431041749135351  0.8276115493602081 -0.0000031391877795
  0.8126378119317301  0.5454262927672643  0.4999969084473569
  0.4909838890204691  0.4974298183502806 -0.0000029926062703
  0.6667487774249803  0.6638765269515614 -0.0000030699263285
  0.5208539925894001  0.7789542776398676  0.4999969626145820
  0.6884495069886447  0.9971370723192002  0.4999969178839617
  0.3280303117279872  0.3182873762398697 -0.0000030776271998
  0.3448652885057106  0.0833260328153342  0.4999968688718133
  0.0048487786309363  0.0041863955252403 -0.0000030523037251
  0.1686032041345018  0.1600253234979198 -0.0000030657766603
 -0.0086795152570454  0.2375325054786078  0.4999969427966567
  0.1638767702486091  0.4082766192034644  0.4999969146047064
