POSCAR file written by OVITO            
   1.00000000000000     
    25.0743011424109135    1.5251835316267695   -0.0000011253198744
     1.0914096545165424   17.3410173236545617    0.0000012745649659
    -0.0000002541687993    0.0000004337090258    5.1568981936885132
   Mg   Nd
    86     6
Direct
  0.2930690033004314  0.1413115950709532 -0.0000026760898359
  0.3782785524448408 -0.0370001999219115  0.9999971527919767
  0.2571337578005471 -0.0234609714204910  0.9999970259148033
  0.4643870094936702  0.3104440701681114 -0.0000029454175122
  0.2996779128535166  0.4264591360512702  0.4999969848065502
  0.4063035332189840  0.2440159179067397  0.4999970142836236
  0.1324730159114511 -0.0213973649288643 -0.0000030616955143
  0.0436784747318284  0.1764787667748807 -0.0000033119044916
  0.4904741718434600  0.0906371145130775  0.4999970135736144
  0.4211318764151785  0.1443507276688280 -0.0000027995860996
  0.0333230533791391  0.4318214385184415  0.4999969240052545
  0.4267002997766687  0.4150510356642622  0.4999970031667363
  0.2039565292718611  0.3207163068805156 -0.0000031954495985
  0.2235084791361362  0.0679114833422251  0.4999968910310594
  0.1197341837846649  0.2513150637493733  0.4999969427578692
  0.0879849740753864  0.0838574681031087  0.4999969000456715
  0.2551649207320844  0.2411351450666057  0.4999970077929790
  0.0786625486433904  0.3362772329203791 -0.0000031124827795
  0.2830427965190188  0.6441764697666457 -0.0000029928908829
  0.3649344635079516  0.4857689652316131  0.9999970326224309
  0.2374748392404934  0.4844053863355171  0.9999969346265020
  0.4548887082191480  0.8074912584499274 -0.0000029949798152
  0.3193421441037826  0.9048298259617373  0.4999970338739304
  0.3993068349215779  0.7484167816271818  0.4999970126689873
  0.1032046324909669  0.5001527287377698 -0.0000031274400661
  0.0296975840448758  0.6655474865493753 -0.0000030915690484
  0.4750394969143998  0.5851164281823135  0.4999970067383094
  0.4093026174426159  0.6432641639410414 -0.0000029655263679
  0.0676666778293549  0.9175651367723316  0.4999969606481632
  0.4449459791143070  0.9152562250521465  0.4999970764334437
  0.2072612042385220  0.8074136424362498 -0.0000030266289020
  0.2209864982721750  0.5880043100116824  0.4999969596042752
  0.1440110630901262  0.7529499038062059  0.4999969891020509
  0.0904958631572960  0.5940326208519994  0.4999968952543272
  0.2719123273316357  0.7466866493426428  0.4999970033889931
  0.0802644456446131  0.8233109034060440 -0.0000030631607660
  0.7948020515854995  0.1738764112958650 -0.0000032292713376
  0.8723344807889857  0.0023376691058323  0.9999969289952975
  0.7486000849215756  0.0009003088603895  0.9999969058719997
  0.9535425318190731  0.3564614659888309 -0.0000032458474882
  0.7845214103290163  0.4345839478227714  0.4999968668244674
  0.8414112543017628  0.2538081953162341  0.4999967277010732
  0.6238506449605599 -0.0074871624994732 -0.0000030380254604
  0.5481937684881438  0.1517225740246902 -0.0000030198115194
  0.9102324971643777  0.0940669097471442  0.4999968221808750
  0.9155385046338805  0.1881529349949304 -0.0000031891099662
  0.5593052482288642  0.4267669025661074  0.4999969988277343
  0.9097670053380086  0.4349401376023090  0.4999968581463753
  0.7113392506953916  0.3341095879561739  0.0000009926759704
  0.6187827512736715  0.0989016865139761  0.4999969540838851
  0.5883841730118808  0.3213209193190976 -0.0000030632860629
  0.7773986074078559  0.6710484382702692 -0.0000030503626105
  0.8568173370141708  0.5129210192611964  0.9999968422695075
  0.7352442902023200  0.5061018849120682  0.9999969082928072
  0.9535281525034091  0.8321679428834249 -0.0000030723821485
  0.8167912016078656  0.9417919928975425  0.4999969240942324
  0.8914182611359507  0.7740544662696179  0.4999969384593341
  0.6174570404068609  0.4894942329564282 -0.0000028972647873
  0.5322490736741400  0.6500662222243764 -0.0000029553334873
  0.9656627359361692  0.6099146751439519  0.4999969549806746
  0.9020490614226361  0.6743367510981335 -0.0000030720631758
  0.5699255541810264  0.9298527492319473  0.4999969712228158
  0.9430259688878501  0.9259226786889009  0.4999969142571534
  0.7002874967905770  0.8313140176799969 -0.0000030230578475
  0.7209545988873235  0.6065680356755757  0.4999969506620178
  0.6450821564409785  0.7686223534672911  0.4999969802981019
  0.5995048936296303  0.5961412576437214  0.4999970515914541
  0.7679222607031624  0.7749156979430147  0.4999969418599589
  0.5762703455018914  0.8228461708248265 -0.0000029928524475
  0.3302615244779741  0.8013694516519361 -0.0000029912957960
  0.3502531346881139  0.5892683340407574  0.4999969886996841
 -0.0211365998570087  0.5156731019328850 -0.0000030869902802
  0.1562897338395497  0.6483802286492147 -0.0000030412966142
  0.0181878935968241  0.7643797281996713  0.4999969638924005
  0.1936930555100059  0.9070830215494028  0.4999969934538149
  0.8329661797682761  0.3473263557799193 -0.0000032581650751
  0.7476970667452016  0.1103793255176300  0.4999968279619814
  0.4974771868773221 -0.0155322296903798 -0.0000029996277021
  0.6714498932231312  0.1662499703922127 -0.0000031237150970
  0.5365752920527236  0.2563664255542476  0.4999969993526535
  0.8258093997071742  0.8363771327242782 -0.0000030643548516
  0.8432714162820091  0.6098955594101486  0.4999969119523469
  0.4920316519616956  0.4810985760734258 -0.0000029674514737
  0.6541580266279279  0.6617622393821853 -0.0000029860496902
  0.5228913706208300  0.7572134311876217  0.4999970116162212
  0.6935767315484145  0.9385806183289223  0.4999969387770223
  0.3310550885701866  0.3095036479962859 -0.0000030084136266
  0.3540459495489839  0.0803800204289890  0.4999970018561208
  0.0007437396386029  0.0163467275517512 -0.0000030482617116
  0.1680974358940987  0.1571470828849041 -0.0000030134207025
 -0.0123967900301831  0.2481692356475363  0.4999970647823110
  0.1678546609374889  0.4135510195293989  0.4999969457607035
