POSCAR file written by OVITO            
   1.00000000000000     
    25.6875791254683890    1.7999126716100606   -0.0000020819724969
     1.2827313369230942   17.1097112186193598    0.0000007384397245
    -0.0000009598505680    0.0000012765802981    5.1889890929516254
   Mg   Nd
    89     6
Direct
  0.2858929535195445  0.1449347129972172 -0.0000032860075959
  0.3737626393708206 -0.0339348141630487 -0.0000032329618847
  0.2542111118341900 -0.0220323289293565  0.9999968131053016
  0.4551043294136098  0.3169105465735355 -0.0000031393518101
  0.2993516509010207  0.4310507252120346  0.4999968608137614
  0.3981698437363501  0.2471320258924216  0.4999967965584314
  0.1322203341239573 -0.0255471591093657 -0.0000031327494312
  0.0356083267972560  0.1679774941286563 -0.0000033418274364
  0.4795455330260864  0.0871400240488281  0.4999968892176823
  0.4132409872906361  0.1444807922396191 -0.0000032123591380
  0.0406603846279671  0.4509283563434103  0.4999968810269547
  0.4223713421150620  0.4157800670183123  0.4999968684979088
  0.1986741718738194  0.3249477441185094 -0.0000038049309831
  0.2213672400021832  0.0731027076427765  0.4999969270637953
  0.1287998249359155  0.2593760296355148  0.4999970812605501
  0.0902422394974973  0.0861530373609001  0.4999968689811282
  0.2535733225929681  0.2482410745100259  0.4999969960139951
  0.0746349452633686  0.3383436939528437 -0.0000032096970650
  0.2843361227892636  0.6453932994856385 -0.0000031841727236
  0.3661460546582957  0.4852046795886875 -0.0000031221718748
  0.2382500652654050  0.4875760279328974 -0.0000033539593248
  0.4522375483281571  0.8078522924039834 -0.0000031443273644
  0.3164554064524141  0.9076053575077393  0.4999968714738126
  0.3973920784532733  0.7494828050231629  0.4999968748203534
  0.1005441624009622  0.5043150587454213 -0.0000034122399718
  0.0231830147537120  0.6625340749908376 -0.0000031526245109
  0.4721662803481787  0.5800600842062393  0.4999968338548089
  0.4077831350127815  0.6443839871556690 -0.0000031559572551
  0.0711312663625654  0.9163391365562397  0.4999968443026654
  0.4384429906997878  0.9165190632811933  0.4999968724448949
  0.2072036438257193  0.8061720070544972 -0.0000031721882904
  0.2238639235785517  0.5950194342927105  0.4999968733649405
  0.1470076336110418  0.7564863588794740  0.4999968397588106
  0.0907976985944134  0.6077172513519703  0.4999969110708546
  0.2732667736755530  0.7495999939740469  0.4999968733644427
  0.0810046578859209  0.8146468793615974 -0.0000031483928467
  0.7816693571112041  0.1633922378717642 -0.0000031774111726
  0.8691125654372361 -0.0024042039175390  0.9999968311161075
  0.7424060076937521 -0.0074831170492392  0.9999968272877267
  0.9347941210534294  0.3441433453929068 -0.0000031749986377
  0.7972097982737381  0.4414425078954994  0.4999968161528396
  0.8774009866954658  0.2792982983254947  0.4999968625425277
  0.6165965694267024 -0.0148907231252986 -0.0000031584410626
  0.5359449113628895  0.1468038804440844 -0.0000031249571406
  0.9644350305446837  0.1014401157511886  0.4999968839316445
  0.9108766342462791  0.1731115545109119 -0.0000031800192544
  0.5483573244135344  0.4224311717193088  0.4999968502682674
  0.9193346710020296  0.4464067083917929  0.4999968667761113
  0.6933932633921058  0.3243467396018329 -0.0000031723394343
  0.7248865953920312  0.1000672650940553  0.4999968285220439
  0.6397776135122210  0.2617830454485266  0.4999968284604467
  0.6021258593143421  0.0924337879148710  0.4999968545686766
  0.7591327755866131  0.2709714539226136  0.4999968109377728
  0.5749552888116836  0.3141945965706018 -0.0000031546623875
  0.7730081927652791  0.6613421135223262 -0.0000031654141825
  0.8522742427080978  0.5019970408685055  0.9999968274982154
  0.7294042276341657  0.4940697851331685 -0.0000031594578166
  0.9449811449652818  0.8279930537517808 -0.0000031628574923
  0.8080127972541273  0.9374448298539162  0.4999968134862348
  0.8863109538109801  0.7738252693527106  0.4999968538012868
  0.6048324812763139  0.4851530053519650 -0.0000031720559471
  0.5282391486736375  0.6465480210623259 -0.0000031508934214
  0.9644743656257989  0.6143742353703552  0.4999968456850583
  0.8970439495808019  0.6669592801746788 -0.0000031581128193
  0.5620922217786568  0.9248849235822407  0.4999968676347617
  0.9329035310467879  0.9352071533606429  0.4999968486407661
  0.6953282740327702  0.8228969282095630 -0.0000031494390984
  0.7180406887233455  0.6014174730423246  0.4999968501609374
  0.6402121283866953  0.7631175360372762  0.4999968574231063
  0.5946737907529045  0.5920924004601963  0.4999968431008123
  0.7629031137873178  0.7698465993419336  0.4999968242554280
  0.5727042070319105  0.8164124261753035 -0.0000031336015444
  0.3287479838536775  0.8040450962216026 -0.0000031401304538
  0.3512126862506609  0.5901549031775837  0.4999968553624408
 -0.0239782626104083  0.5015379203159691 -0.0000031597509920
  0.1567783368850645  0.6473856648144570 -0.0000031624246770
  0.0139141483532335  0.7735510232927824  0.4999968535663770
  0.1944991060839299  0.9104723847472865  0.4999968241682624
  0.8126998997923454  0.3335699623585155 -0.0000031631269249
  0.8457237550099691  0.1054511975771863  0.4999968191410526
  0.4917907753932643 -0.0195141646413568 -0.0000031286433941
  0.6577433076822177  0.1529248750601750 -0.0000031581393047
  0.5197957416182463  0.2545379933821982  0.4999968803822498
  0.6744937565998602  0.4327303669461431  0.4999968422061981
  0.8191239735357714  0.8291271687851186 -0.0000031575689027
  0.8417129840771210  0.6088341997062254  0.4999968376909494
  0.6502485582878260  0.6534042656686345 -0.0000031501669983
  0.5184377977117526  0.7552868596109028  0.4999968612683418
  0.6850829338780307  0.9322186947198912  0.4999968564410909
  0.3254144689742037  0.3129439355419486 -0.0000031178952013
  0.3471616496000019  0.0845472844987141  0.4999970645771234
  0.0039019767726526 -0.0046238557966208 -0.0000031735505406
  0.1616297116790202  0.1577502528689775 -0.0000034040704069
  0.0047225621341295  0.2698055821148125  0.4999971546805564
  0.1692032817143196  0.4267020923494639  0.4999979293181036
