POSCAR file written by OVITO            
   1.00000000000000     
    25.0328018807397932   -0.8004347784300170   -0.0000007709069133
    -0.5671344981115709   18.0575243053715013   -0.0000259234420661
    -0.0000003607704665   -0.0000071682782493    4.9657532424258157
   Mg   Nd
    86     6
Direct
  0.3006573662083815  0.1714635878078829  0.0000068826986231
  0.3998427336732583  0.0066310370588874  0.0000100979522041
  0.2650137097068985  0.0049701867955171  0.0000021720213828
  0.4724430871900643  0.3391801401194305 -0.0000055905394054
  0.3005659406867099  0.4338994868592810  0.5000010220452770
  0.3991344966599017  0.2610064031857113  0.5000026918932269
  0.1333667112244092 -0.0123130626498058  0.0000004207228599
  0.0484844030463531  0.1591284772201463  0.0000000889293237
  0.4706004455956426  0.0727639095382504  0.5000195082244382
  0.4283262582814771  0.1741509889024021  0.0000055136582807
  0.0399664508448024  0.4162053387781975  0.5000006422587598
  0.4225627234711970  0.4296873725519489  0.5000001176263545
  0.2157128760351399  0.3306454443055735  0.0000011460922153
  0.2119687903194572  0.0621048265893529  0.5000014821079836
  0.1305869832415440  0.2437316958381850  0.5000013501647504
  0.0855693119921460  0.0730818275314275  0.5000005476649664
  0.2592505713121891  0.2505674557210721  0.5000030902012679
  0.0876076156358277  0.3290431620514440  0.0000008898660170
  0.2920513663097832  0.6772948117938264 -0.0000018790733655
  0.3768387225809571  0.5192092099072843  0.9999985677468682
  0.2512407443664068  0.5033522688097272  0.0000009829989648
  0.4650627138957822  0.8543535235475517  0.0000060871384325
  0.2861615913914116  0.9143919707976452  0.5000011471487493
  0.3690562343944991  0.7581504290814154  0.4999995188471144
  0.1237474836632545  0.5047252951824246  0.0000007279225129
  0.0415380758893928  0.6613428901903426 -0.0000000473616294
  0.4565565528102365  0.5983624728268823  0.4999975001466866
  0.4173981841192799  0.6856309859644042 -0.0000015243557064
  0.0400504848655639  0.8997764153983914  0.5000000461248520
  0.4098778046780396  0.9176822173258542  0.5000067315446856
  0.2124354364180031  0.8385508459161012 -0.0000009691652471
  0.2070067844866014  0.5876914368773341  0.5000004906350715
  0.1177368944050734  0.7405349684514255  0.4999992801872755
  0.0814055883478198  0.5764801683636971  0.5000008134085996
  0.2439543494745159  0.7510416192227883  0.4999988415656180
  0.0827641539750428  0.8277966563413063 -0.0000005826199094
  0.7847981533003283  0.1644365876664882  0.0000089981959938
  0.8665614742548352 -0.0023844846495506  0.0000014392458052
  0.7388336023536459  0.0006362953653884  0.0000297550611834
  0.9589120340077492  0.3316944164566903  0.0000009027341217
  0.7947051932171463  0.4193794674369355  0.5000014534632692
  0.8779260295054908  0.2419419299810212  0.5000023018472884
  0.9458673253861328  0.0754560789511651  0.5000013162706104
  0.9193926706309243  0.1609122156817510  0.0000008986968044
  0.5467661498361465  0.4142119217978348  0.4999958755564802
  0.9178778202897064  0.4067227959725945  0.5000017263300867
  0.7102928027371547  0.3202837793845000  0.0000039248764479
  0.7071524472706577  0.0996954517639660  0.5000598695229762
  0.6419461413819042  0.2402741753965917  0.5000151351677301
  0.5891200517449521  0.0832035176959880  0.4994202239847125
  0.7615413503823407  0.2566134994301688  0.5000062445655189
  0.5902744764952279  0.3199031663754471  0.0000007082480798
  0.7881083920455595  0.6639684287615567  0.0000035063393010
  0.8730553016837816  0.4935859963482609  0.0000006193405982
  0.7478225202367978  0.4946406901941191  0.0000012948653076
  0.9570126961450390  0.8212361228066770 -0.0000003334716754
  0.7862191065535108  0.9139321540285943  0.5000125535902525
  0.8722571425469091  0.7447401064944458  0.5000030185084646
  0.6239133216080676  0.4960217579186574 -0.0000026403520460
  0.5412027410023346  0.6818025696699100 -0.0000005229725850
  0.9542008010913395  0.5734909102038542  0.5000011699649574
  0.9140440371641642  0.6582752261589453  0.0000016531493254
  0.5353658547878750  0.9277731674683681  0.5000295082334140
  0.9145240578132386  0.9105083049861715  0.4999997600643601
  0.7083818914651455  0.8330264277120746  0.0000059540205703
  0.7054673009607764  0.5789261662207967  0.5000017014221328
  0.6221206430003252  0.7594579691537882  0.5000080698432835
  0.5815201308765215  0.5889351104820385  0.4999971802791014
  0.7466519868090790  0.7451814914437174  0.5000049951690735
  0.5882686447338993  0.8535277684411158  0.0000178989924073
  0.3381154316917237  0.8469343762069639  0.0000005768614236
  0.3316348613799840  0.5980098349997267  0.4999980662480975
 -0.0025115845055722  0.4985588538458108  0.0000001595558834
  0.1671111236351522  0.6729680727910181 -0.0000007207436195
 -0.0047587627531826  0.7365935850395536  0.4999998825827837
  0.1622113423803710  0.9000368242534170  0.4999992803449251
  0.8341683611579787  0.3277417638892848  0.0000011135433431
  0.8242414514231571  0.0809818492777945  0.5000053648254086
  0.5200959970962135  0.2361949599567774  0.4999760952176179
  0.6703194865673906  0.4092063325406998  0.4999988847216315
  0.8328104527663727  0.8305981117686463  0.0000058476203744
  0.8306325362689767  0.5826068638105005  0.5000019167131549
  0.5005257223068617  0.5105260983180563 -0.0000030765689963
  0.6636487870632233  0.6667644825794927  0.0000029024148166
  0.4954800727647532  0.7630981297836938  0.4999994326664285
  0.6616185529078794  0.9318654508894848  0.5000064148812186
  0.3408672316937381  0.3368929818262195  0.0000009549290277
  0.3439448987251290  0.0913408965704537  0.5000089429642601
 -0.0000855463606369 -0.0030023441966331  0.0000013081753814
  0.1742460536115150  0.1630308480955925  0.0000013181816832
  0.0062265457498815  0.2388027191119403  0.5000012654538457
  0.1706885129132845  0.4103741202381722  0.5000008342297549
