POSCAR file written by OVITO            
   1.00000000000000     
    25.1065010744373893    1.1063000501408011   -0.0000017578443419
     0.7919393899551513   17.4117311082848119    0.0000022272716754
    -0.0000004586091257    0.0000007376083395    5.1255670445063721
   Mg   Nd
    87     6
Direct
  0.2981592496682086  0.1514676149129044 -0.0000032153115529
  0.3801703876817045 -0.0273065077839751 -0.0000031697866578
  0.2588940318796419 -0.0149561684985773  0.9999970586919794
  0.4814429114799200  0.3159083255676473 -0.0000030569746227
  0.2922975494762193  0.4325042238476686  0.4999969857431261
  0.4220422947042137  0.2495117951892773  0.4999969453119333
  0.1336121347476432 -0.0174836874337574 -0.0000030311740951
  0.0489045943442575  0.1741552076180599 -0.0000029969946112
  0.4962696882532845  0.0918559405740917  0.4999969783734779
  0.4291763952884937  0.1503586539034490 -0.0000031665113301
  0.0308389078593868  0.4302703180414325  0.4999969835215666
  0.4145036726327361  0.4249595260311401  0.4999969147952336
  0.2133551225598503  0.3271697432302880 -0.0000036840000387
  0.2277844236819518  0.0746971257460444  0.4999966391883613
  0.1223643219814313  0.2484539781898317  0.4999966033900012
  0.0919941253421962  0.0828026772433572  0.4999969152251947
  0.2594474378028750  0.2478385599352878  0.4999971593009231
  0.0859674172875431  0.3337294262996449 -0.0000029515011711
  0.2766322752706282  0.6555841005559949 -0.0000030932265990
  0.3528750052966002  0.5028275165748598  0.9999969119774891
  0.2297720160971855  0.4951916473326821  0.9999967728024799
  0.4534576399119348  0.8160751864399470 -0.0000030801984320
  0.3192296676993069  0.9153152629555106  0.4999969430900970
  0.3949842445241584  0.7596160391427972  0.4999969339333056
  0.0966511768540714  0.5020047077263956 -0.0000032908594558
  0.0252876166019606  0.6647853513323241 -0.0000030451739308
  0.4669982048168448  0.5942623372238154  0.4999969011374176
  0.4028626007955694  0.6562228936816722 -0.0000031050845691
  0.0684267791077150  0.9180015021135811  0.4999969901725331
  0.4446425851934442  0.9231040057647175  0.4999969713699574
  0.2044777565630696  0.8146315355644358 -0.0000030285659458
  0.2157355086792466  0.5940421364526958  0.4999970156476460
  0.1421527932804098  0.7570647876426645  0.4999969858254105
  0.0868853956416048  0.5950183209339459  0.4999970913621732
  0.2685099996155675  0.7564629469378665  0.4999969571736699
  0.0784563911994088  0.8246002945791071 -0.0000030335555899
  0.8040219082789212  0.1560270941624720 -0.0000029252083305
  0.8750257947520821 -0.0097571867791833  0.9999969951904570
  0.7515526727150694 -0.0095815999091631  0.9999970268323938
  0.9640409605741229  0.3524973028636295 -0.0000029517122717
  0.7855015399369105  0.4220217808339195  0.4999969598674774
  0.8412346138963075  0.2444527970305112  0.4999970643363808
  0.6276338619495907 -0.0134717661553190 -0.0000030027529297
  0.5568715920523480  0.1493545467377540 -0.0000030428518929
  0.9072853598121973  0.0875294509160552  0.4999969894727935
  0.9214894225268074  0.1807204029330267 -0.0000029603217106
  0.5396394155951210  0.4259754888616648  0.4999969030704968
  0.9084283442161669  0.4250628830046138  0.4999970155759115
  0.7302901980536651  0.3136765208844708 -0.0000033740340891
  0.6254926981440607  0.0896646324393161  0.4999970111299642
  0.6066959821434073  0.3223569097674553 -0.0000030643282740
  0.7729236881791987  0.6599281436676745 -0.0000030375982558
  0.8476809940794996  0.5050486066306943  0.9999969733061801
  0.7226409964622014  0.4924362174641473  0.9999969501354705
  0.9521634331694999  0.8276130705527835 -0.0000030421973622
  0.8181210662566759  0.9321914899810553  0.4999970185396508
  0.8899937622851197  0.7687387179312063  0.4999970163606235
  0.5986339119749384  0.4980953380486407 -0.0000031031606265
  0.5264820668463932  0.6571814129340310 -0.0000030891814352
  0.9624322147508730  0.6086965095740366  0.4999970233685714
  0.8970850006290194  0.6687715620822825 -0.0000030157880258
  0.5703543153344205  0.9280960053833837  0.4999969760678529
  0.9444430770462839  0.9218037137099476  0.4999970083779393
  0.7004422929819353  0.8232447380133096 -0.0000030096060460
  0.7156836756347451  0.5952593193793032  0.4999969629378892
  0.6422468759604708  0.7636157180065271  0.4999969621473482
  0.5918641859476460  0.5974617326965981  0.4999969379610123
  0.7659308082828832  0.7646785328676710  0.4999969904806342
  0.5765617175187672  0.8217944256870092 -0.0000030464184222
  0.3275572926188252  0.8121646961718648 -0.0000030736598023
  0.3427830464404681  0.6010382155469771  0.4999969525661543
 -0.0296871809956409  0.5167117713297987 -0.0000030200028402
  0.1507578685540860  0.6537514443414688 -0.0000030530566786
  0.0171764515011326  0.7637857135624753  0.4999970303712624
  0.1939198194354314  0.9143651941376167  0.4999969569772457
  0.8478256526424301  0.3347614485045071 -0.0000029188896671
  0.7529279756677714  0.0998952737541236  0.4999970607068598
  0.5011179903101919 -0.0133769703530323 -0.0000030401684865
  0.6789696637115478  0.1577490807892428 -0.0000029306221760
  0.5583433181366451  0.2493359829636183  0.4999969602286767
  0.6626902686410181  0.4168060955940663  0.4999968876159917
  0.8245218935564540  0.8266986170496388 -0.0000030066378224
  0.8399522832374150  0.6022341159514445  0.4999970089900712
  0.4746973336227757  0.4933149546485909 -0.0000030873742795
  0.6505141819153268  0.6580276174194477 -0.0000030554597933
  0.5185176366151348  0.7623510034113945  0.4999969217561602
  0.6949024809192416  0.9295275380478945  0.4999970155851324
  0.3434362333581489  0.3183540811431669 -0.0000030242497918
  0.3587706063582649  0.0905546062003538  0.4999972402459273
  0.0021797318613627  0.0143395865762366 -0.0000029593511698
  0.1731773669105871  0.1621415404110859 -0.0000024348260281
 -0.0097506104956785  0.2430280075241311  0.4999969772760969
  0.1634521416693744  0.4149502265035767  0.4999980128641081
