POSCAR file written by OVITO            
   1.00000000000000     
    24.7508468574805072    2.1342254998122230    0.0000045797358545
     1.5144860262290238   17.5492817724405690   -0.0000164634377079
     0.0000013449322054   -0.0000048580936184    5.1372961517316122
   Mg   Nd
    85     6
Direct
  0.2922570905753634  0.1306336617771475 -0.0000033213816760
  0.3754479022415140 -0.0496275655951056  0.9999969451423940
  0.2535020388294961 -0.0287640225849259  0.9999971345691078
  0.4625091101128880  0.3067694251361709 -0.0000029125791799
  0.3021694070476144  0.4189472578704967  0.4999969430631591
  0.4110683854401265  0.2369296761868354  0.4999972547482793
  0.1283011534395382 -0.0146624771338050 -0.0000030543625984
  0.0356975612715109  0.1930965760419668 -0.0000028467414974
  0.4996918949642082  0.0814529270663340  0.4999970944235805
  0.4214651696270871  0.1390588667654371 -0.0000031645990664
  0.0248788511135784  0.4377307685818029  0.4999971575438765
  0.4325358938953121  0.4081903428838519  0.4999970184689080
  0.2009977566724072  0.3173840400394221  0.0000034370534004
  0.2231745414413251  0.0647980077170491  0.4999972341707160
  0.1097174590569396  0.2575420741242914  0.4999972798258656
  0.0823007731836493  0.0934453197412577  0.4999970993576856
  0.2523831658674572  0.2334543309294113  0.4999962894001299
  0.0760505826230564  0.3459899189804240 -0.0000027960085466
  0.2844264684981618  0.6367917329188602 -0.0000029358750176
  0.3667305341127240  0.4722212468605683  0.9999970627110292
  0.2372836114119093  0.4785001182435785  0.9999985224406897
  0.4545577420802581  0.7916772247201698 -0.0000029991539007
  0.3186640621147165  0.8982731446403734  0.4999970883967124
  0.4004764524721459  0.7354535587782350  0.4999970430049410
  0.1025254115286836  0.5059238371934653 -0.0000003569329681
  0.0303677501657468  0.6774318945409590 -0.0000028616015153
  0.4819467170911134  0.5751603589917391  0.4999970198234366
  0.4117418057676094  0.6296333484898754 -0.0000029651176073
  0.0640309879081482  0.9285221322772640  0.4999969219740858
  0.4459738782819786  0.8976486446115641  0.4999970782249314
  0.2062560914653706  0.8063080727962005 -0.0000029802341320
  0.2221972848901443  0.5832550730218310  0.4999970712864744
  0.1434878210094360  0.7554484106084245  0.4999969652882174
  0.0925682550626890  0.5994791094376108  0.4999965266392344
  0.2720373339815574  0.7403703858916356  0.4999969497434997
  0.0786711005286644  0.8332954818949828 -0.0000029228438904
  0.7883638058146961  0.1701090428996480 -0.0000030131202391
  0.8659385557194367  0.0065654545034390  0.9999969688046650
  0.7409482129913250  0.0016558510456753  0.9999969826068954
  0.9523372382420846  0.3752010205476425 -0.0000032198696067
  0.8082698692916996  0.2709108549696386  0.4999969678009205
  0.6128700535294449 -0.0046197163716440 -0.0000031882792565
  0.5436373803752219  0.1534694627327012 -0.0000029053643476
  0.8852828327192640  0.1080606326763557  0.4999969820108118
  0.9047496729299938  0.1970589884013271 -0.0000029890142329
  0.5681120460565330  0.4186525523093047  0.4999969837993128
  0.8915296123626411  0.4424844015944847  0.4999970708580259
  0.7169620502737898  0.3334741769260426 -0.0000031319510426
  0.6687404392422280  0.2699475567418796  0.4999969661362020
  0.5902462862172221  0.3159582630441914 -0.0000029916105041
  0.7744488338515308  0.6821387780043922 -0.0000029458449553
  0.8547303336306518  0.5308769028900927  0.9999969418111558
  0.7400654707243803  0.4986248713731433  0.9999972367802238
  0.9513355733426936  0.8465730000279430 -0.0000029301893431
  0.8121042499181255  0.9471779130385812  0.4999969880941571
  0.8916989226284764  0.7889901720032193  0.4999969355000512
  0.6221661736305225  0.4794705461402206 -0.0000029101496730
  0.5362640896876451  0.6352518127333872 -0.0000029559371974
  0.9692516572255543  0.6244000523545983  0.4999968763410325
  0.9016233716565568  0.6897541395860528 -0.0000029927921182
  0.5694675979480440  0.9142261564171799  0.4999969869528321
  0.9394581081225757  0.9419591093432307  0.4999969978600917
  0.6931549889027704  0.8381498531531187 -0.0000030145060775
  0.7335763425816781  0.6052527635608888  0.4999970560716723
  0.6494396582966583  0.7595540998509061  0.4999970309931109
  0.6117935019197345  0.5823671278572774  0.4999969735134853
  0.7672912498252727  0.7852093321801299  0.4999969907284382
  0.5729908783169408  0.8136311154405443 -0.0000029904762677
  0.3299458932244344  0.7927181436138647 -0.0000029467659559
  0.3539155153777033  0.5781686804084011  0.4999969758742113
 -0.0227450258385554  0.5312201614011978 -0.0000028892311892
  0.1572598522521641  0.6500607796790280 -0.0000029463253558
  0.0177295723633811  0.7766153802118707  0.4999969734281213
  0.1916468930482331  0.9064295643103445  0.4999969240440523
  0.8365491511547906  0.3590579819263899 -0.0000031052213955
  0.7430059780635487  0.1079413537887308  0.4999970268812957
  0.4911610202963456 -0.0230308183457296 -0.0000029871247771
  0.6646836320563307  0.1579240962458463 -0.0000030121249947
  0.5413731438816114  0.2503682040983256  0.4999969652904366
  0.8208344106504492  0.8445053424204252 -0.0000030134002435
  0.8494800595077975  0.6291996089411225  0.4999969576264383
  0.4959707708489015  0.4699476895032308 -0.0000029698697409
  0.6564596998217689  0.6531157953775815 -0.0000029753501840
  0.5275200814104994  0.7410718234501859  0.4999970362238183
  0.6862913247258789  0.9490835866813809  0.4999970380120499
  0.3284219020534569  0.2986436858481296 -0.0000028456713981
  0.3615524347302583  0.0700560214847495  0.4999979838554338
 -0.0061295701733630  0.0327783786503094 -0.0000032250133434
  0.1639959272389238  0.1592282740599110 -0.0000031241106382
 -0.0326948756528614  0.2599654825579675  0.4999970482285395
  0.1664734042087280  0.4125070022657752  0.4999881713177458
