POSCAR file written by OVITO            
   1.0000000000000000     
    25.0196642936449010   -0.9686227268194945    0.0000005522864231
    -0.6875901139352099   18.1921393289972215   -0.0000006110831731
     0.0000001218724239   -0.0000001455087526    4.9583011563472201
   Mg   Nd
    88     6
Direct
  0.2895298202065166  0.1670531810709265 -0.0000029330015116
  0.3742145166823489 -0.0062099353507567  0.9999970168740497
  0.2508639334652098 -0.0009675187963573  0.9999969680731315
  0.4713509484157806  0.3309970369558566 -0.0000030607627661
  0.3023951147572924  0.4322156459589940  0.4999970403793038
  0.3998494877326580  0.2548522877293131  0.4999970234216795
  0.1263270401039838 -0.0133929609919098 -0.0000030613952682
  0.0391362304298164  0.1610839507714156 -0.0000030246462723
  0.4657264280516772  0.0984560544041671  0.4999969489813483
  0.4132097713899683  0.1653177545244907 -0.0000030337657858
  0.0379674511197605  0.4174594204301513  0.4999969550814219
  0.4258113668697611  0.4226549761652648  0.4999969475129467
  0.2125058310255341  0.3277866654987311 -0.0000030145533981
  0.2039962834153831  0.0678153656080906  0.4999969456766221
  0.1231701095505127  0.2450361492198027  0.4999969143870834
  0.0785070252393901  0.0765019748128705  0.4999969298421499
  0.2539804152380257  0.2493704015856736  0.4999969160262592
  0.0827991581776253  0.3295536343865075 -0.0000030431653663
  0.2949785099865787  0.6645895849766688 -0.0000030586554926
  0.3803098501016685  0.5110422366028626  0.9999969424757156
  0.2527692845242767  0.4962139786188847  0.9999969128695529
  0.4600054203240106  0.8422765682219016 -0.0000030458891755
  0.2944504285570424  0.9133092698919760  0.4999969413426193
  0.3813997134741571  0.7609768026805379  0.4999969439892041
  0.1254490497890722  0.5015055681711664 -0.0000030536975999
  0.0469358828776806  0.6597099463348706 -0.0000030602424831
  0.4643420218097248  0.5918982003839208  0.4999969401930372
  0.4212804884745410  0.6766375464856329 -0.0000030596721948
  0.0446323539580474  0.9030731998544315  0.4999969507057244
  0.4198329474347622  0.9294846212052985  0.4999969391358619
  0.2107609879215094  0.8292825702262911 -0.0000030503538757
  0.2155910320381538  0.5835457352033665  0.4999969584124337
  0.1269031874490690  0.7427642209479740  0.4999969444178250
  0.0880374401666613  0.5770270017350735  0.4999969386330084
  0.2544638855242715  0.7485156541382220  0.4999969449025591
  0.0835577368749707  0.8255095036692701 -0.0000030564722183
  0.7829177703127020  0.1679543992521248 -0.0000030694635542
  0.8660538413452741 -0.0010725700697719  0.9999969377724798
  0.7445252046043949 -0.0019969614147155  0.9999969340418207
  0.9531984013892296  0.3352095039180517 -0.0000030742606502
  0.7843022204913566  0.4178024691802070  0.4999969477068414
  0.8641191603887414  0.2442161885304857  0.4999969378790705
  0.6231879615970591  0.0149348659465747 -0.0000030608818425
  0.5374078038141591  0.1675593134766215 -0.0000030626610517
  0.9424050246635235  0.0754400730123328  0.4999969346235136
  0.9123018190156107  0.1636683841202650 -0.0000030593631463
  0.5565337517295582  0.4242910309894846  0.4999969414091117
  0.9126203151742094  0.4067255577138145  0.4999969492948548
  0.7081642234530942  0.3556459584021231 -0.0000030746916403
  0.7036051031493539  0.0894498506367085  0.4999969339471616
  0.5869852434709140  0.1040982129343558  0.4999969390609240
  0.7374477146192189  0.2558440994026258  0.4999969394076626
  0.5913017416943058  0.3284927224203379 -0.0000030540312017
  0.7981401395734069  0.6713773634037418 -0.0000030614139131
  0.8784472656107589  0.4936173921093907  0.9999969272323237
  0.7589733377340947  0.5113649454993739  0.9999969224002943
  0.9599761369961829  0.8183419949853030 -0.0000030608846718
  0.7897381949105438  0.9116022322080320  0.4999969304839237
  0.8774821211027550  0.7423261655164441  0.4999969440453190
  0.6325506770157486  0.4939335252467911 -0.0000030609446313
  0.5470138815365585  0.6753235319818703 -0.0000030596529157
  0.9594206194092985  0.5727059670566748  0.4999969439303245
  0.9211422997252512  0.6560749745410049 -0.0000030600630166
  0.5448545459610067  0.9301272475404936  0.4999969382312153
  0.9165094595385223  0.9085920175035802  0.4999969385154343
  0.7109866487396339  0.8288913224611458 -0.0000030621163865
  0.7073057535497445  0.5685291580263745  0.4999969510538973
  0.6285035961053941  0.7546043414319076  0.4999969351124243
  0.5879566966462955  0.5897940613955065  0.4999969378428131
  0.7510100063495644  0.7414726273798699  0.4999969390242228
  0.5866946271228139  0.8442078532589781 -0.0000030597614697
  0.3343047399620701  0.8286282420010048 -0.0000030533936220
  0.3414182339487214  0.5968465351861600  0.4999969427350943
  0.0007209605810162  0.4988868095949754 -0.0000030777253799
  0.1712755095765128  0.6646005498261772 -0.0000030593162005
  0.0025932496932160  0.7368261272955420  0.4999969511593068
  0.1700186852538829  0.9041788081149139  0.4999969367958596
  0.8276938157305352  0.3328706620262045 -0.0000030722391962
  0.8220822439207622  0.0804925429585120  0.4999969327718222
  0.4979836486189577  0.0060558915871493 -0.0000030504698333
  0.6605387115915016  0.1875834621480184 -0.0000030702770107
  0.5295831701506551  0.2589837144214089  0.4999969372125102
  0.8377064119469312  0.8335457610826877 -0.0000030614974042
  0.8344467925911508  0.5794802880716395  0.4999969434002335
  0.5063562424758803  0.5037958361498268 -0.0000030599576432
  0.6718386955464875  0.6615043841281825 -0.0000030597225088
  0.5048027203238384  0.7599011506898615  0.4999969478768977
  0.6671111938578682  0.9218735513256214  0.4999969369042581
  0.3388353175833876  0.3308581412312547 -0.0000032151547101
  0.3340721751399663  0.0909777519049092  0.4999966970089284
 -0.0036360917859005 -0.0043696407858457 -0.0000030609445308
  0.1652025112161498  0.1631231945166651 -0.0000030024787355
 -0.0025833061934513  0.2419500937743565  0.4999969028372348
  0.1701500205720887  0.4085097554211309  0.4999968955888575
