POSCAR file written by OVITO            
   1.00000000000000     
    25.1017011006709510   -1.0721392434212238    0.0000013902635617
    -0.7586817518800515   18.2501488113418482   -0.0000013503683099
     0.0000002823499931   -0.0000004010984964    4.9499528153881078
   Mg   Nd
    89     6
Direct
  0.2972158992416090  0.1732636489523146 -0.0000029193190402
  0.3858742292264656  0.0052512876143023  0.9999970105373711
  0.2597495018045172  0.0037024069435631  0.9999969528693797
  0.4690751265832919  0.3388362770108061 -0.0000030852569334
  0.3003819644093614  0.4358648291188065  0.4999969076227218
  0.3916564527070848  0.2597534621492292  0.4999969183634261
  0.1317596050734864 -0.0204662856914555 -0.0000030889663603
  0.0458346322724986  0.1625609457199798 -0.0000030635635408
  0.4665234906390727  0.0908480056630325  0.4999969055272658
  0.4217049439886886  0.1744832416534015 -0.0000030541841761
  0.0453607210470042  0.4327137722426529  0.4999969069964914
  0.4210595234297758  0.4268066121918756  0.4999969151477208
  0.2122926280334141  0.3254165529939989 -0.0000030395249605
  0.2057999623641902  0.0536474993647944  0.4999969062787481
  0.1284194656469776  0.2419740500486345  0.4999968893390245
  0.0835302364601644  0.0742772498757375  0.4999969142554476
  0.2557866580935521  0.2497068072404449  0.4999968520840714
  0.0851348610983287  0.3340676581765437 -0.0000030828603062
  0.2939929509943164  0.6774472638385541 -0.0000030900787594
  0.3736543564881512  0.5194430991640093  0.9999969127313145
  0.2473986351565634  0.5031627138868348  0.9999969087218267
  0.4618907265407042  0.8454914189581924 -0.0000030857609556
  0.2898900160247000  0.9144583596963568  0.4999969132087083
  0.3744895428530525  0.7609611669135676  0.4999969131125903
  0.1197652683875485  0.5104689684874025 -0.0000030937389381
  0.0438734076408415  0.6491229942271483 -0.0000030774149228
  0.4548331985662158  0.5947335714431459  0.4999969117707327
  0.4184197907751584  0.6820276073489651 -0.0000030939470928
  0.0445462869754643  0.9010870253087963  0.4999969183308075
  0.4178110725920537  0.9264585749918136  0.4999968975531442
  0.2165578631228768  0.8370655067396321 -0.0000030708499885
  0.1956744809361629  0.5844865279624707  0.4999969204385040
  0.1148775509255820  0.7187505717541568  0.4999969061517321
  0.2457025256374552  0.7479508564689299  0.4999969164958541
  0.0843575449919756  0.8174722972290698 -0.0000030867304816
  0.7925590046357595  0.1639211837360598 -0.0000030859422038
  0.8709798361904435 -0.0027913393508675  0.9999969161767118
  0.7499584922856827 -0.0014805007333519  0.9999969110800577
  0.9534328706734158  0.3296784403199678 -0.0000030848600537
  0.7914315692027287  0.4168809911661521  0.4999969146784187
  0.8739450706549472  0.2446664926300773  0.4999969088721305
  0.6290763162236026  0.0018888534128740 -0.0000030754242939
  0.5476841028990240  0.1721476540826351 -0.0000030755198438
  0.9488580781944079  0.0765442127889072  0.4999969096013608
  0.9196375402047935  0.1609138045389635 -0.0000030875815379
  0.5447808745391434  0.4231671386695793  0.4999969108857149
  0.9186098581709177  0.4105634085974664  0.4999968931294602
  0.7105821075881110  0.3350105771708848 -0.0000030841658879
  0.7076683717070513  0.0838445191597613  0.4999969084821249
  0.6325241617113498  0.2525370906625359  0.4999969069608545
  0.5872132896792805  0.0873274941080794  0.4999969150598925
  0.7531135884194257  0.2489315670824697  0.4999969083382642
  0.5899538360851214  0.3375309789321191 -0.0000030873251008
  0.7925710588568403  0.6656690669870415 -0.0000030833840760
  0.8709390968885299  0.4929084212106234  0.9999969175880344
  0.7480743834970792  0.5014926779508408  0.9999969156171291
  0.9583045819524034  0.8208896588870284 -0.0000030948820699
  0.7929394207360708  0.9138391555245450  0.4999969019853220
  0.8743029184042289  0.7442756815938644  0.4999969135782455
  0.6233934695335854  0.5054533336534496 -0.0000030898755351
  0.5426128783752456  0.6726465657548910 -0.0000030852428833
  0.9646383472556542  0.5755034955106989  0.4999968960199458
  0.9179010041020648  0.6560736437233893 -0.0000030924787032
  0.5450696641772770  0.9207787427244103  0.4999968993850335
  0.9189576868346337  0.9097722994726593  0.4999969107741820
  0.7102337964706547  0.8328788701133585 -0.0000030910927364
  0.7086201396208388  0.5853707477082677  0.4999969028416896
  0.6250182905421647  0.7526375325075384  0.4999969030170768
  0.5823116242574136  0.5890316482390633  0.4999969117833902
  0.7498201677999868  0.7490666188881832  0.4999969046573357
  0.5859020072471677  0.8371757821275934 -0.0000030935899795
  0.3386372088224058  0.8424726616722830 -0.0000030859575727
  0.3268484350236664  0.5997895406714415  0.4999969234636787
 -0.0077727425931899  0.4910110506734546 -0.0000030810856886
  0.1715932058058635  0.6760015922657436 -0.0000030842621663
 -0.0033256306084280  0.7387615545978491  0.4999969095491644
  0.1635420222939608  0.8848023564437479  0.4999969107772009
  0.8311958208297883  0.3292532874613411 -0.0000030868624030
  0.8279936995591889  0.0804356211155406  0.4999969083053589
  0.5082033874693176  0.0070420762261743 -0.0000030916697948
  0.6700357758939245  0.1683320439379606 -0.0000030813890398
  0.5122048194508314  0.2556215120794662  0.4999969085025336
  0.6675316779364916  0.4204663170981191  0.4999969090683292
  0.8352029054358611  0.8312203504573661 -0.0000030884631536
  0.8353994234235019  0.5807651702280381  0.4999969096443656
  0.4975641764321915  0.5080141647514177 -0.0000030836147167
  0.6675107889375242  0.6690273043652993 -0.0000030954469989
  0.4999163835815210  0.7572240690752385  0.4999969077168848
  0.6694244479307391  0.9170327968968132  0.4999969133084157
  0.3370033435162587  0.3386375011123695 -0.0000030868677008
  0.3365046678048290  0.0925293360848049  0.4999966112427554
  0.0013706197867902 -0.0033444419093569 -0.0000030904046300
  0.1718729604782911  0.1572060792649922 -0.0000030697001908
  0.0042044938873562  0.2457474693218044  0.4999968888039716
  0.1722579925559131  0.4063503628686740  0.4999968618533991
