POSCAR file written by OVITO            
   1.0000000000000000     
    25.3568508563853925    0.6574018531424929    0.0000000456075828
     0.4968892353399058   17.1911201421000186    0.0000001507178371
     0.0000000649112504   -0.0000000299232304    5.1467464781782910
   Mg   Nd
    88     6
Direct
  0.3012090820048150  0.1499671606760236 -0.0000030666881689
  0.3806121604515252 -0.0143209974040030 -0.0000030598241709
  0.2568450704431818 -0.0163247798316895  0.9999969545024041
  0.5050780418811229  0.3223817052294350 -0.0000030619557179
  0.2829408288146455  0.4322467854553718  0.4999969376974849
  0.4460987263723479  0.2676604434707544  0.4999969471226106
  0.1314901043751423 -0.0222367356173190 -0.0000030531173533
  0.0523826168030841  0.1715055428534991 -0.0000030459500191
  0.5071681479702066  0.0994561146102576  0.4999969441622196
  0.4437602666261702  0.1611201146752945 -0.0000030619363970
  0.0252861080985145  0.4301245997799968  0.4999969466863391
  0.3997054312529742  0.4383144487898914  0.4999969397103705
  0.2226150219025425  0.3339634342971924 -0.0000030430292524
  0.2370267345076591  0.0787002746613240  0.4999969476909660
  0.1233790822944544  0.2414282687824700  0.4999969427104768
  0.0938475706480264  0.0769536573089665  0.4999969435477323
  0.2612630823297046  0.2514021530507973  0.4999969507536958
  0.0990596740784132  0.3271609296039239 -0.0000030419833747
  0.2693508637350687  0.6626108123364127 -0.0000030579053469
  0.3378127436296341  0.5073666397720448  0.9999969398866969
  0.2157480704862726  0.5039774619076701  0.9999969559348552
  0.4506946813602943  0.8235415350251104 -0.0000030533685167
  0.3208568046816783  0.9288681897730853  0.4999969520466245
  0.3901546133912909  0.7684521344342977  0.4999969517135292
  0.0793675567446583  0.4978131762536127 -0.0000030454623290
  0.0141977982042459  0.6561153401812335 -0.0000030630119169
  0.4572543141567992  0.5999691340916522  0.4999969502489773
  0.3950735575513629  0.6624780760600483 -0.0000030524307827
  0.0672553121557404  0.9122163402044147  0.4999969620689312
  0.4450867910013727  0.9333630558741426  0.4999969544942452
  0.1992557462074162  0.8151677377861090 -0.0000030594607838
  0.2099519702550554  0.5999578107937511  0.4999969407624013
  0.1389340159345164  0.7584670921022849  0.4999969516919331
  0.0804631241519823  0.5942931106920154  0.4999969502615076
  0.2651989334986603  0.7656769008256192  0.4999969458876605
  0.0733546120810989  0.8175580401498074 -0.0000030486774463
  0.8126364806346503  0.1435472316088023 -0.0000030759501154
  0.8764800137951032 -0.0226053548895825  0.9999969421040761
  0.7543235690173856 -0.0225115641903774  0.9999969323472288
  0.9847743120839734  0.3483984248133712 -0.0000030380393283
  0.7750545537305110  0.4152339946972913  0.4999969265710174
  0.8389011089208070  0.2425626478698044  0.4999969175771740
  0.6304443833496287 -0.0161126985958523 -0.0000030666915049
  0.5698821887455419  0.1527430797829560 -0.0000030656599469
  0.9014174094826403  0.0794208093281363  0.4999969558354195
  0.9279340939075453  0.1648500216229521 -0.0000030577260412
  0.5215289787455396  0.4285787850350359  0.4999969362325370
  0.9038406641567125  0.4158367023024702  0.4999969227771009
  0.7565675512313660  0.3114593358059730 -0.0000030694632026
  0.7036438571992368  0.2507920858619926  0.4999969282214888
  0.6338737711217250  0.0903311700500069  0.4999969297902669
  0.6343497453767269  0.3162570087842717 -0.0000030719673047
  0.7638795342248953  0.6484820290981764 -0.0000030694651060
  0.8271907089174674  0.4872458881025334  0.9999969241390652
  0.7041389860576077  0.4817785799135489  0.9999969296071790
  0.9476466821660057  0.8182908524792687 -0.0000030501137011
  0.8186429593833887  0.9193236016379069  0.4999969395576797
  0.8855418459802301  0.7588176548419939  0.4999969260515328
  0.5802511786749542  0.4861206897666701 -0.0000030636363725
  0.5183279682812767  0.6561548967637313 -0.0000030557494980
  0.9551301640861283  0.6003743904513783  0.4999969347265506
  0.8865693133037914  0.6595042403729995 -0.0000030739950634
  0.5705409828096889  0.9282446964330827  0.4999969369300529
  0.9438825175275719  0.9141692949160415  0.4999969492664835
  0.6969102989968363  0.8147434958815245 -0.0000030708468361
  0.7068696526518425  0.5874365940192212  0.4999969355213554
  0.6369460070971763  0.7580837048092077  0.4999969357463428
  0.5815080734731765  0.5936740262692179  0.4999969365842069
  0.7611435468904525  0.7544011210282057  0.4999969293795160
  0.5738386941331591  0.8201951188756854 -0.0000030612985163
  0.3242778174571020  0.8211717552113514 -0.0000030497122331
  0.3340117368387170  0.6080759043128833  0.4999969441489661
 -0.0522356637988749  0.5075999918941537 -0.0000030806832247
  0.1408734221417368  0.6527395201576209 -0.0000030534348374
  0.0126866727153811  0.7572555705867434  0.4999969511260801
  0.1927747397251367  0.9202693823613580  0.4999969392489891
  0.8733558451008729  0.3218196662700918 -0.0000030887386496
  0.7615258801675392  0.0830980312611717  0.4999969247592604
  0.5040315152323751 -0.0073031992193311 -0.0000030551309766
  0.6921908030134458  0.1454835341393739 -0.0000030673730490
  0.5755367806936402  0.2597221876316942  0.4999969306027282
  0.6472177630657225  0.4224730273512864  0.4999969330834211
  0.8203638057305030  0.8153014820928148 -0.0000030668674763
  0.8328950314431924  0.5889206340372652  0.4999969219651819
  0.4573062583401259  0.4921374773975761 -0.0000030584780078
  0.6416438600980350  0.6498613338633380 -0.0000030630449767
  0.5130248626544964  0.7639366925791294  0.4999969491959405
  0.6947465256554541  0.9219769644608342  0.4999969316262670
  0.3564393641700617  0.3171610639098016 -0.0000030583136876
  0.3705419208280039  0.1111753698858542  0.4999969728974470
  0.0029562248513488  0.0064958676460329 -0.0000030447424382
  0.1770330526256877  0.1599203722495897 -0.0000030467193208
 -0.0131208696483583  0.2372774484999766  0.4999969455593695
  0.1555549526621786  0.4180174882162963  0.4999969268813019
