POSCAR file written by OVITO            
   1.00000000000000     
    25.0675382897770724   -1.2063942948052782    0.0000065149379159
    -0.8535677601145853   18.3155501494752180   -0.0000068763034557
     0.0000012852075398   -0.0000018516089394    4.9374067778117414
   Mg   Nd
    89     6
Direct
  0.2945224579151116  0.1779366818545019 -0.0000032315217241
  0.3783714939370178 -0.0023331545858037  0.9999968417763936
  0.2532692906169562  0.0049493366382880  0.9999969697985063
  0.4665221070085130  0.3391645947138962 -0.0000033372099776
  0.3035085740110433  0.4569865892469849  0.4999970244937202
  0.3875854332638147  0.2619519289070014  0.4999968437454294
  0.1277389673784986 -0.0127746081024894 -0.0000032039808600
  0.0420398393805296  0.1599647125410959 -0.0000029556257602
  0.4631522594075545  0.0901908090316454  0.4999968580972521
  0.4186100926090142  0.1730184487178713 -0.0000031549451990
  0.0393042303246087  0.4190679910650539  0.4999970387191595
  0.4211552084488063  0.4275068491432409  0.4999968853292285
  0.2088214995199267  0.3288646387324443 -0.0000027238273963
  0.2043948318165534  0.0679067916717311  0.4999969034589337
  0.1258295208317945  0.2466374799466242  0.4999969270344216
  0.0802396007626009  0.0767923269888101  0.4999969972479398
  0.2536453388909646  0.2551740357964018  0.4999969309450302
  0.0831209381018838  0.3295446938420802 -0.0000029852582386
  0.3011763376850656  0.6608021651621669 -0.0000032225665291
  0.3746315353505315  0.5262445846109003  0.9999971337227953
  0.2462948814755382  0.4975387685891960  0.9999970265868928
  0.4630415297490065  0.8455570170780159 -0.0000031197802338
  0.2934243006536935  0.9164432007707868  0.4999969161715977
  0.3765067708474150  0.7432542985670089  0.4999971042505285
  0.1208725414465561  0.5007951188163274 -0.0000029282838097
  0.0482424426038984  0.6587993419403926 -0.0000032491622420
  0.4537336039678669  0.5944787650079757  0.4999971838513850
  0.4274419378824223  0.6832462940453249 -0.0000027426481747
  0.0455422127637063  0.9034587273350546  0.4999970246660910
  0.4173409904732309  0.9219489751970860  0.4999968328706582
  0.2123907913170123  0.8328495351864622 -0.0000031848430986
  0.2225079181064946  0.5880683117213794  0.4999968860581432
  0.1287733460765585  0.7427697323754490  0.4999968644649148
  0.0903268175794915  0.5787638608959156  0.4999969097488910
  0.2542404594282635  0.7522598354499265  0.4999967816402023
  0.0848270252279435  0.8256838747499691 -0.0000030424636490
  0.7890788364228981  0.1647107218935836 -0.0000029709257469
  0.8667926834199960 -0.0032260995107279  0.9999971139387324
  0.7457959370157375 -0.0006793729435830  0.9999971983751239
  0.9548454406207734  0.3327657394365496 -0.0000029934040111
  0.7901730702351256  0.4153830938449154  0.4999967446715287
  0.8705696281040416  0.2431155882321344  0.4999969176836978
  0.6245948600283966  0.0027192339455902 -0.0000028547729442
  0.5443464800938596  0.1724575699370408 -0.0000033654457206
  0.9437653054158938  0.0734446398024358  0.4999969192956029
  0.9158423111438166  0.1605962874014781 -0.0000031177052539
  0.5440992557970170  0.4219569924492928  0.4999967715056108
  0.9155021125138548  0.4081810364074522  0.4999969614832634
  0.7094555702977333  0.3351129588214399 -0.0000033067388160
  0.7032833465210305  0.0841542227658058  0.4999971758769555
  0.6291754138492694  0.2530911947231135  0.4999965772968311
  0.5833651877506159  0.0884803805957251  0.4999969434078375
  0.7499086931811980  0.2485064012498580  0.4999968272040697
  0.5880937754752579  0.3375138086005046 -0.0000034181574947
  0.7957754552204924  0.6644362079277913 -0.0000033034827649
  0.8730199456275785  0.4925750934870928  0.9999968686899039
  0.7489975574009392  0.5010896422569678  0.9999967978963142
  0.9613490816924608  0.8168478242922839 -0.0000033803968290
  0.7916699893629383  0.9135945699752498  0.4999970877983546
  0.8796614364682721  0.7397041234388708  0.4999968188937175
  0.6237737682322549  0.5050814333242367 -0.0000030918579777
  0.5483268759738225  0.6713568450427931 -0.0000029837388333
  0.9598960777958924  0.5743723286226332  0.4999968181161318
  0.9205295237070086  0.6543340732481867 -0.0000032597114424
  0.5438313408897643  0.9214807284742861  0.4999969929861039
  0.9178184723214267  0.9064131830694970  0.4999968964195575
  0.7128892645208363  0.8319383004259560 -0.0000030270032806
  0.7091524181529345  0.5843616068708045  0.4999968452500202
  0.6287424691557034  0.7506021314922032  0.4999969587604869
  0.5829613213908349  0.5872046027023445  0.4999969715803280
  0.7541904611619112  0.7474610532534710  0.4999967794442992
  0.5876679376451235  0.8364691904112217 -0.0000029839391299
  0.3375011626006505  0.8284491998389698 -0.0000029347157021
 -0.0034919962468081  0.4983811150140769 -0.0000030863613006
  0.1755031812944692  0.6636943088169429 -0.0000030948940897
  0.0048883087680716  0.7369223901200296  0.4999967109951407
  0.1700895017354791  0.9045383400292758  0.4999967386670932
  0.8311062430466354  0.3292306758581581 -0.0000031093401278
  0.8233394363364409  0.0805288170554800  0.4999971837630044
  0.5027935980599751  0.0080792651815989 -0.0000031382791491
  0.6666728205308990  0.1690979596363839 -0.0000031964331835
  0.5080654929006742  0.2548970074851206  0.4999965629045358
  0.6666835461815356  0.4199906186760740  0.4999966990961706
  0.8387855823315856  0.8293014316060826 -0.0000031952200056
  0.8343518546302746  0.5784692034280641  0.4999967321159520
  0.4972605217723923  0.5084289667960074 -0.0000028938293624
  0.6714514422515555  0.6677849129588310 -0.0000030539084674
  0.5032619641369215  0.7562351702462037  0.4999969155120396
  0.6679678480872426  0.9167429074847289  0.4999972069885874
  0.3340764953072616  0.3474290819366577 -0.0000030810455864
  0.3340993604786973  0.0931654589735577  0.4999968608166187
 -0.0026263223173068 -0.0050318252934334 -0.0000030360082513
  0.1679970727094702  0.1631404743001360 -0.0000030537861146
  0.0004259894970871  0.2408658552165281  0.4999971969458617
  0.1710946494401449  0.4130224320173594  0.4999969051607845
