POSCAR file written by OVITO            
   1.00000000000000     
    24.8567168805779772   -0.2495514323222721   -0.0000724906841127
    -0.1756276372353691   17.8502408993992674    0.0000365415751873
    -0.0000145845783572    0.0000101812451242    5.0273920039900295
   Mg   Nd
    85     6
Direct
  0.3003198983068262  0.1673208279129593  0.0000004353737968
  0.3966937706042569 -0.0021596852534061  0.0000021259961860
  0.2634298876563572  0.0008331490331177  0.0000024925428711
  0.4800082914684855  0.3304448690137519  0.0000670090192653
  0.3010188150942760  0.4275917052652549  0.5000110749870008
  0.3938910309574445  0.2503518025294628  0.5000138435839083
  0.1327956126001755 -0.0123360225349349 -0.0000007699450996
  0.0449911659670993  0.1637118361186442 -0.0000005462596013
  0.4678818038584854  0.0634808898845811  0.4999955595382832
  0.4297541731456027  0.1644163315850599  0.0000154198986211
  0.0396437978734379  0.4203311322434886  0.4999984356919279
  0.4254281942141324  0.4181691589609514  0.5000239936434329
  0.2152388450489578  0.3288575230528807  0.0000021938215084
  0.2098162232293932  0.0603908045073260  0.5000011633466600
  0.1268452419483321  0.2442252477639055  0.4999981698099140
  0.0832017716592088  0.0754554771441762  0.5000001961630582
  0.2576366151832572  0.2471330150381234  0.5000024505127790
  0.0843641380397757  0.3315673237550683 -0.0000017953014870
  0.2942274334367235  0.6721282426967284  0.0000058565327620
  0.3772703215483683  0.5117056061618565  0.0000127142240371
  0.2512540073704391  0.4992676657250198  0.0000057080108315
  0.4687222497072048  0.8450743891300978 -0.0000006413406823
  0.2875789672722376  0.9091786906240279  0.5000028016541257
  0.3711445890411201  0.7493585197916702  0.5000056182232114
  0.1230206291479039  0.5046002658755822 -0.0000013770320566
  0.0424414640010665  0.6622449011387535 -0.0000018984211814
  0.4564141557519232  0.5882050708863419  0.5000115034615942
  0.4202398718745056  0.6772986683957392  0.0000075985122580
  0.0412103879214442  0.9030059419692167  0.5000009358823221
  0.4121977551888184  0.9087778490764343  0.5000025649604934
  0.2138047590289821  0.8347814895447556  0.0000015604872699
  0.2074342974550875  0.5851271200340029  0.5000040749786795
  0.1211490371544715  0.7405032022339089  0.5000019553366762
  0.0830437504587618  0.5782678097928022  0.4999976515300198
  0.2465322570243637  0.7467821108335251  0.5000039948525415
  0.0845900207917479  0.8284569988169783  0.0000016129275187
  0.7794742502518003  0.1709568406880487  0.0000226772503728
  0.8644051313208153  0.0033948037607006  0.0000036350292739
  0.7340178367950138  0.0072522369154465  0.9999963416157530
  0.9500812466974273  0.3361256063701610 -0.0000031043712314
  0.7976879518374085  0.4306075306185638  0.5000064366525309
  0.8692678555971223  0.2541220388704256  0.4999983456466673
  0.9443490624051667  0.0807263138711080  0.4999973388154080
  0.9141327698003666  0.1667014763502892 -0.0000028053327391
  0.5517554182350090  0.4044628620261357  0.5000227011975655
  0.9187717463926978  0.4162206492854778  0.4999960399735758
  0.7040258993315751  0.1102152348351577  0.5000015893631681
  0.6291179258031101  0.2535565915569719  0.4992896965704906
  0.5877899081982678  0.0833353089506765  0.4999690299674873
  0.7488299627070308  0.2722124776069894  0.5000461153183209
  0.7895536555305365  0.6650323846779858 -0.0000033347737084
  0.8703510797699310  0.4979204091144458  0.9999984364758197
  0.7438591096994925  0.4925750226789112  0.0000041040279502
  0.9596842265297435  0.8247457679520462 -0.0000011066796624
  0.7875416200655483  0.9188525512969182  0.4999983348572572
  0.8762702592874122  0.7506134554066397  0.4999976964347885
  0.6214262503634835  0.4917007880060849  0.0000189287152586
  0.5446517202151592  0.6760106022825203  0.0000028911896113
  0.9579911117451325  0.5805247791523076  0.4999977820303408
  0.9152571400078335  0.6628599366591654 -0.0000027660831907
  0.5391794723052282  0.9142029205338076  0.4999863107442660
  0.9154005243061930  0.9157796128707256  0.5000006244401312
  0.7132920897657935  0.8358454659455044 -0.0000060174520913
  0.7094254515075192  0.5834830430219010  0.4999955610059471
  0.6241500598115107  0.7569691292372293  0.4999934492122603
  0.5830503507681639  0.5838266428624203  0.5000082189150200
  0.7503365890496277  0.7490973809805359  0.4999953305337883
  0.5935856235171351  0.8514023318901364 -0.0000096778061784
  0.3400215451007975  0.8388449393794291  0.0000031133375236
  0.3314867116194783  0.5910240925178967  0.5000091288456293
 -0.0041633888700646  0.4999385775469268 -0.0000019455376949
  0.1685437239416661  0.6705480012089944  0.0000029626680178
 -0.0006723291744455  0.7408284757492810  0.4999986286160863
  0.1635053427314330  0.8993002711612560  0.4999996403879756
  0.8189049148659664  0.3359014949503761  0.0000117338822924
  0.8222568038108237  0.0884623947412746  0.5000137268230530
  0.5301192421159154  0.0130171833947814 -0.0000176439379988
  0.5115817140796968  0.2262424320286804  0.5001259532141288
  0.6755648753734435  0.4155185070515795  0.5000286779639905
  0.8361560038696288  0.8331253747590256 -0.0000018355878281
  0.8353937226396084  0.5909425424508775  0.4999976454270638
  0.5001178746128011  0.5026037317127817  0.0000145833023465
  0.6664433504935831  0.6677735515284430 -0.0000063514545802
  0.4965057906887628  0.7509205960346356  0.5000016625651246
  0.6633205035357445  0.9339290632375191  0.4999951700020903
  0.3422083266598282  0.3311529060383538  0.0000171939653137
  0.3406450494027389  0.0846451605541957  0.5000006147724201
 -0.0007648399943712  0.0008960761975653 -0.0000008295886225
  0.1726716932671100  0.1628028108410675  0.0000000929715044
  0.0006040495873085  0.2445660794304119  0.4999974370804925
  0.1702657559935766  0.4089975334614053  0.4999988815938645
