POSCAR file written by OVITO            
   1.0000000000000000     
    24.8597018071933960    1.9465027635512355   -0.0000049811636685
     1.3700288026686305   17.4386610562521227    0.0000125620885725
    -0.0000011649751479    0.0000036802506689    5.1665373575782958
   Mg   Nd
    87     6
Direct
  0.2911496566323040  0.1342968183849019 -0.0000027657982183
  0.3773418898046105 -0.0454048881129232 -0.0000030038590708
  0.2554955010268104 -0.0267371032545828  0.9999969426249147
  0.4616975565175844  0.3040785900155764 -0.0000032963706971
  0.3030950593471383  0.4195183389675055  0.4999962049865934
  0.4050409833627914  0.2397319442274213  0.4999967993402216
  0.1303634150384713 -0.0160590325195966 -0.0000031094501994
  0.0372011852607002  0.1911225603298279 -0.0000027436284593
  0.4911520315170373  0.0848123858985596  0.4999971328261079
  0.4197771551671127  0.1391658937512049 -0.0000030338875255
  0.0252867194656501  0.4325179533234567  0.4999968179802113
  0.4331504899817817  0.4079340422440010  0.4999966502783418
  0.2009142859979828  0.3196930889927880 -0.0000027582571696
  0.2208628728027204  0.0661299120011404  0.4999973641422518
  0.1104520214880042  0.2568638657447176  0.4999969352049922
  0.0833103261727511  0.0917429739113234  0.4999971616028141
  0.2521166727460448  0.2362900099700971  0.4999963635551055
  0.0767168212115716  0.3457007551680251 -0.0000022729763436
  0.2868378073697636  0.6377596094699286 -0.0000033074163556
  0.3686429630933707  0.4736790165379478  0.9999971041222466
  0.2395270166312986  0.4796208157661108 -0.0000029538119133
  0.4564008864532061  0.7964056709404798 -0.0000032063870484
  0.3194384030337623  0.8987048460650927  0.4999973557263880
  0.4017130646088340  0.7381986571166189  0.4999970070469031
  0.1074427450702827  0.5049086435946314 -0.0000027112516026
  0.0339448853704391  0.6742598003945905 -0.0000031413243635
  0.4818364876151924  0.5762383782689535  0.4999967589424703
  0.4136210371830724  0.6318159481877833 -0.0000029568513258
  0.0661227826606863  0.9257304509380140  0.4999972555516146
  0.4460826351894682  0.9042233300664090  0.4999971562733349
  0.2090281077531174  0.8071590225683908 -0.0000034091693667
  0.2237843981775353  0.5837237268596535  0.4999966618856835
  0.1454097068858158  0.7544353230628575  0.4999971508417307
  0.0940901750422741  0.5976543003504540  0.4999967255543841
  0.2734936719158328  0.7409119472779365  0.4999972126362155
  0.0815942167443648  0.8307527241253838 -0.0000032120879756
  0.7930171426187707  0.1619159039108968 -0.0000028754502506
  0.8697876592500092 -0.0014726547216764  0.9999972912672359
  0.7455630040256905 -0.0053334657852735  0.9999973021436358
  0.9531408352968015  0.3696517598987117 -0.0000024834330240
  0.7036405713906295  0.4276626828653490  0.4999971308465210
  0.8082072826157359  0.2655324355892499  0.4999966965058090
  0.6203263986679394 -0.0131553595722565 -0.0000031048511787
  0.5455537857519012  0.1471983635465441 -0.0000037013275501
  0.8865922409971266  0.1025698149095179  0.4999967613741865
  0.9074664166462891  0.1921018794740539 -0.0000026042392571
  0.5696061529525411  0.4184915670324789  0.4999972244659544
  0.8896517405295901  0.4325824094128946  0.4999969590617869
  0.7170664869409596  0.3237632347532650 -0.0000035531580598
  0.6637337699938649  0.2618838013356804  0.4999970978470890
  0.6173587033701421  0.0936991647472321  0.4999967867781265
  0.5887672524745370  0.3131214352278632 -0.0000033814793214
  0.7801621760155092  0.6721622822660857 -0.0000035182964588
  0.8634376129766563  0.5233325838436721 -0.0000031619004919
  0.7465580965032113  0.4977736108910700  0.9999962930087950
  0.9548733208503063  0.8409830904599893 -0.0000030140920173
  0.8164185782102040  0.9405389624669376  0.4999969149162812
  0.8948066506437504  0.7817987620365712  0.4999972712131390
  0.6251998938476331  0.4795333578440160 -0.0000030270455084
  0.5376517625459357  0.6379012895459675 -0.0000025548181964
  0.9711821531223797  0.6183363258434190  0.4999970182331471
  0.9062428215319783  0.6826239250759201 -0.0000032327165800
  0.5704529245731851  0.9206551504794115  0.4999968077953107
  0.9423653764909331  0.9364195877247566  0.4999972668344774
  0.6991323175048707  0.8280044813927092 -0.0000028173433128
  0.7326185614921863  0.6006275536334026  0.4999970382638766
  0.6491938077530517  0.7597057010262277  0.4999967506690967
  0.6091617552099573  0.5853948871214675  0.4999971322626712
  0.7708943936543294  0.7750994937214347  0.4999972852595043
  0.5763092211051009  0.8153128252302112 -0.0000028430067958
  0.3322514726203650  0.7941376403660565 -0.0000034263367602
  0.3549745819141889  0.5798762988990559  0.4999965963678698
 -0.0151015861212717  0.5248979050965447 -0.0000024424693852
  0.1603123064211283  0.6504256684281242 -0.0000033943869416
  0.0202357343205050  0.7720930354313610  0.4999972630834507
  0.1929944849398760  0.9057565421818503  0.4999971973119254
  0.8365660925445024  0.3525489827228424 -0.0000028912858124
  0.7458673237801602  0.1019782373793376  0.4999966212092523
  0.4951870678629001 -0.0219891921448716 -0.0000035410979173
  0.6695704216248227  0.1548805481362710 -0.0000033976031913
  0.5341743104849165  0.2527988775492610  0.4999971402867838
  0.8250208964916524  0.8368873061579759 -0.0000029852831880
  0.8514931714807541  0.6199770886974987  0.4999971240085734
  0.4980758186202874  0.4701679380484471 -0.0000026438376708
  0.6590150288738883  0.6536927762935621 -0.0000029097994117
  0.5268731852576707  0.7455231531478796  0.4999967332535183
  0.6931387473390180  0.9332089361372288  0.4999966187552495
  0.3274376309574241  0.3013134602344057 -0.0000035293111518
  0.3554508849831088  0.0733158020645576  0.4999963348645670
 -0.0038644160532672  0.0290171904439982 -0.0000023729738887
  0.1646358628877161  0.1597649753699391 -0.0000027494953253
 -0.0307336845254027  0.2539595114437787  0.4999972415628101
  0.1677355104019235  0.4129592390524467  0.4999975839930138
