POSCAR file written by OVITO            
   1.00000000000000     
    25.0418851782926772    0.9648344597018967    0.0000000152695732
     0.6802984791293537   17.4517844743230448   -0.0000063230070165
     0.0000007620996779   -0.0000016833304818    5.1221631957156086
   Mg   Nd
    87     6
Direct
  0.2970858484240006  0.1536472381180009 -0.0000045663689297
  0.3785384927318799 -0.0250080992314215 -0.0000041524776392
  0.2572278222606809 -0.0129436441329965 -0.0000029137946801
  0.4851104949011211  0.3173649782195997 -0.0000029692792564
  0.2888873738183594  0.4329870045317322  0.4999969768306369
  0.4254785104972092  0.2520916721160125  0.4999971011778187
  0.1318884571617483 -0.0164326692943548 -0.0000029578053241
  0.0466856334389101  0.1753556277015350 -0.0000032815184683
  0.4961421638762271  0.0929392039890092  0.4999969444745259
  0.4292944926019877  0.1524689646556223 -0.0000037738836424
  0.0278552785424945  0.4299294344007487  0.4999969749001228
  0.4104242769372743  0.4278799890211242  0.4999967068897048
  0.2141763618662924  0.3293046642626034 -0.0000029168876589
  0.2258193126945179  0.0760278867412108  0.4999970549217644
  0.1194595299001289  0.2474948638227809  0.4999970048793993
  0.0895758071893780  0.0829992844321846  0.4999973817867481
  0.2580724756222513  0.2490444673863726  0.4999972282586699
  0.0872149437910580  0.3328260182312716 -0.0000030493976983
  0.2736053503777078  0.6575674651738376 -0.0000030606549918
  0.3479672452791612  0.5053105979499579 -0.0000031168015371
  0.2249256642950035  0.4979869262401870 -0.0000029892303840
  0.4512032876881133  0.8177919816743856 -0.0000032296963465
  0.3173546508442286  0.9173216190785390  0.4999971119628319
  0.3922939285197748  0.7611233844852557  0.4999968039065212
  0.0911665159399592  0.5018169229543143 -0.0000028698982921
  0.0212339261140689  0.6641601039075277 -0.0000030235719206
  0.4657524850061504  0.5950685352897300  0.4999968629751917
  0.4006212966445825  0.6579273393429916 -0.0000030887797645
  0.0664984556398784  0.9179268950730972  0.4999968534279163
  0.4424616822107423  0.9247904330044773  0.4999970546474301
  0.2020252303386150  0.8157174630513014 -0.0000029322802429
  0.2126769941966958  0.5953439112716448  0.4999970093768331
  0.1395429260017629  0.7575962553136569  0.4999967022682288
  0.0833380052368122  0.5948011916805096  0.4999970676161584
  0.2660059695227845  0.7578609561479260  0.4999969029964465
  0.0758878166221274  0.8246820056540914 -0.0000028796445965
  0.7993657532180296  0.1605790208618456 -0.0000030418234499
  0.8721813478153928 -0.0091093376885466  0.9999972134458437
  0.7505865943203955 -0.0157570490174803  0.9999969803779086
  0.9675759707605135  0.3526680134304001 -0.0000030936090617
  0.8368190606524865  0.2430233617363542  0.4999969917178202
  0.6260657923199101 -0.0145878376127715 -0.0000032041252307
  0.5571072772017402  0.1494106107904398 -0.0000031569933071
  0.9041450682678135  0.0852910463142525  0.4999973767997815
  0.9190435875729064  0.1755988601506756 -0.0000028308476005
  0.5349925138377490  0.4263738613186888  0.4999968843688314
  0.9053435325065315  0.4242565861668546  0.4999970125259450
  0.7339674059551620  0.3287610402226298 -0.0000030130042653
  0.6960542629819666  0.2464086467078347  0.4999968117538064
  0.6258708655736351  0.0894641111673230  0.4999968491243498
  0.7816082443345234  0.4200681226795733  0.4999970565859626
  0.6125692798232643  0.3178070316784202 -0.0000031380384808
  0.7688116276196842  0.6606186074290255 -0.0000029331345953
  0.8401478583057658  0.5018849139871224 -0.0000029441347235
  0.7152698395061083  0.5060759745688217 -0.0000031788425765
  0.9496384299988126  0.8267403162130968 -0.0000028766211432
  0.8172155975613262  0.9255632833574979  0.4999970364504855
  0.8873482658209214  0.7654337268398125  0.4999971217552314
  0.5929754772345364  0.4960250620159569 -0.0000033848807907
  0.5247721689173579  0.6567429888887122 -0.0000030025615509
  0.9577355501331620  0.6077168300108610  0.4999971018936403
  0.8926065433250215  0.6666063455443613 -0.0000026593373464
  0.5677402135375144  0.9285292388729758  0.4999968690516080
  0.9426826598833609  0.9206066023328381  0.4999968909025032
  0.6982370416510336  0.8220636573707769 -0.0000031421177170
  0.6587683919148354  0.4211794022101596  0.4999968905984249
  0.6387949584245098  0.7648285539090718  0.4999966124565293
  0.5952687453350309  0.5956758812102900  0.4999968395553288
  0.7623121653247974  0.7629788619047463  0.4999969776279269
  0.5739362497248200  0.8229491575042666 -0.0000032106444862
  0.3253381263740396  0.8140298860056280 -0.0000029697392063
  0.3399693369485568  0.6028311360713928  0.4999969977206938
 -0.0365407098429941  0.5168570727749632 -0.0000028614672924
  0.1470330473662844  0.6543582259127027 -0.0000029247250517
  0.0145425253466297  0.7629048267482293  0.4999970808921901
  0.1921535782219322  0.9151578503532097  0.4999969754633150
  0.8535542063920956  0.3303728378805447 -0.0000031197666456
  0.7579666749115754  0.0862518708030132  0.4999969469222356
  0.4995665840044348 -0.0120303068457435 -0.0000031080775572
  0.6800529271648720  0.1489100837651336 -0.0000033226398451
  0.5611930560828571  0.2504429478033714  0.4999966704229731
  0.8227143222102973  0.8242428118613453 -0.0000029251552118
  0.8320844629957540  0.5989194968692207  0.4999970577656502
  0.4691951287824532  0.4942057566182985 -0.0000032479143629
  0.6479146300009694  0.6614246688276600 -0.0000032695452139
  0.5158348874100468  0.7615416088193390  0.4999965956316913
  0.6925378386707943  0.9275198701350471  0.4999969105549772
  0.3450880019632132  0.3195205673426039 -0.0000031231352503
  0.3577826463771956  0.0932963220506179  0.4999998407569555
  0.0002142308528592  0.0138670715920364 -0.0000029121800363
  0.1720050551356478  0.1635710320498804 -0.0000029501522985
 -0.0148384085662111  0.2425391508849166  0.4999983586850433
  0.1600950071023425  0.4152690503352789  0.4999968270809685
