POSCAR file written by OVITO            
   1.00000000000000     
    24.9909114867846327    1.7770302163790885   -0.0000053525570925
     1.2619697404026144   17.3929003621745366    0.0000014673509380
    -0.0000011896771710    0.0000006411274257    5.1494133581690633
   Mg   Nd
    85     6
Direct
  0.2932287747440586  0.1354436205832519 -0.0000039123940106
  0.3769851331783733 -0.0422191532096179  0.9999963365821586
  0.2557099968256924 -0.0273508150589216  0.9999965550426924
  0.4631982214825447  0.3095698303835507 -0.0000037515973846
  0.3001659231383131  0.4234519618383683  0.4999965168315149
  0.4084004331973847  0.2415704215580289  0.4999965113177910
  0.1309476655382485 -0.0211154723621740 -0.0000034936535369
  0.0416721042929309  0.1803899238716840 -0.0000037456613547
  0.4951798361704570  0.0891074546781882  0.4999958026055220
  0.4215754647825103  0.1431357881487449 -0.0000037068750874
  0.0324010728942975  0.4332794135945588  0.4999964411701246
  0.4282377391619840  0.4133148880197779  0.4999961577349466
  0.2026222611302282  0.3180918721368701 -0.0000034357272277
  0.2250853713737815  0.0656688650974632  0.4999965010457773
  0.1171755597431689  0.2521056706566368  0.4999963572132657
  0.0868299264812399  0.0855206230894679  0.4999963282628876
  0.2546506451910778  0.2371389678354377  0.4999964318248787
  0.0776734341420549  0.3379121643658405 -0.0000036518620547
  0.2824674726508822  0.6408432217083738 -0.0000035188830131
  0.3647735096497031  0.4800594445909781  0.9999963293534869
  0.2368605304029245  0.4814088446508191  0.9999965017985629
  0.4535428915043719  0.8012263375923797 -0.0000035972030626
  0.3196224876115311  0.9021550698798414  0.4999964711701950
  0.3992232282766732  0.7431975750582446  0.4999964239806202
  0.1021446914765227  0.5008018442854872 -0.0000035237245722
  0.0282390104896156  0.6683819600959875 -0.0000034056315236
  0.4764781783723648  0.5819034193779709  0.4999959578398461
  0.4088180102245286  0.6378177421292353 -0.0000037707014709
  0.0665897941636115  0.9199165371575367  0.4999965352260478
  0.4458461439205889  0.9081808034192776  0.4999963368665205
  0.2058597569471645  0.8055271437697198 -0.0000034186496234
  0.2207610951391392  0.5860237284303298  0.4999965346920097
  0.1434170362609860  0.7531539922223703  0.4999965996459137
  0.0901980455791716  0.5953566563578490  0.4999964746061657
  0.2716527082886651  0.7441493104376924  0.4999965139836375
  0.0784775763008398  0.8251784247303628 -0.0000033660905635
  0.7927317753414077  0.1732709483041142 -0.0000056514970879
  0.8699602436096444  0.0044527375512397  0.9999964649439328
  0.7452826031151631  0.0048107440526664  0.9999962185152067
  0.9530721316235857  0.3614540978593891 -0.0000040161032415
  0.7846138021133455  0.4379783148744724  0.4999955756981694
  0.8313194092051447  0.2563447513280367  0.4999932692561561
  0.6185784650026525 -0.0002261873525299 -0.0000033158772748
  0.5466013758935082  0.1547492933165737 -0.0000050102504648
  0.9018822149064621  0.0978243864917904  0.4999959374916537
  0.9124952690630402  0.1911504759417150 -0.0000040926795609
  0.5616271344301005  0.4240741323724071  0.4999946962682050
  0.9096485701331780  0.4429970117668180  0.4999961369693056
  0.7117434134564110  0.3332795702800129  0.0000684720929369
  0.5881451384699092  0.3203949541781994 -0.0000063330923202
  0.7741606333463191  0.6763171887505137 -0.0000031397776165
  0.8539460124642871  0.5174599789114203  0.9999960913050066
  0.7332354282207840  0.5072938899642839 -0.0000035545241030
  0.9513307790951677  0.8368419812006570 -0.0000034531026989
  0.8147621757461745  0.9452338383605272  0.4999965792879390
  0.8902589656281519  0.7794802371876715  0.4999968736271924
  0.6171590291398360  0.4864509738399042 -0.0000041388278169
  0.5318781047206511  0.6444697951813159 -0.0000036615657549
  0.9652130383629254  0.6143524830966001  0.4999967537399805
  0.8998126179053997  0.6790710079491855 -0.0000032549922153
  0.5697174374298708  0.9253273746874779  0.4999966795381386
  0.9419327664877282  0.9308072831435749  0.4999963488552264
  0.6956663443217057  0.8384515355100643 -0.0000033191875621
  0.7223587408516909  0.6097564433725073  0.4999968894670943
  0.6453739425792413  0.7682418449264288  0.4999966796654031
  0.6021108045142983  0.5917312621009263  0.4999964510175803
  0.7662172676599043  0.7809281448482702  0.4999968035728076
  0.5730813972672546  0.8217930636481016 -0.0000033429127095
  0.3292064445953287  0.7978163237450815 -0.0000035341346562
  0.3509141483103415  0.5847760157440033  0.4999963701358455
 -0.0230830182667497  0.5198984053911487 -0.0000033496747632
  0.1553443660379261  0.6477684061042902 -0.0000034447863636
  0.0171574225929949  0.7677134296398787  0.4999966033289879
  0.1931858051045236  0.9063077763503251  0.4999965679450515
  0.8334923371508569  0.3501211203369980 -0.0000060994001267
  0.7479422327234911  0.1125650556879509  0.4999951397544952
  0.4946106811204624 -0.0164494593671044 -0.0000038394653055
  0.6682201712553663  0.1645284627430680 -0.0000025550811866
  0.5398183157371869  0.2543765904710243  0.4999949536889191
  0.8224433462120254  0.8403903978919189 -0.0000032433961415
  0.8431558882333882  0.6166676246582379  0.4999965235322940
  0.4923509239764188  0.4771666830358269 -0.0000046234957466
  0.6518774486782828  0.6619744774734391 -0.0000033973390417
  0.5240254942625275  0.7511046068448302  0.4999964792001765
  0.6894063043390875  0.9499669594635765  0.4999965229061155
  0.3297312305551676  0.3045171441677906 -0.0000033665195847
  0.3583596751187907  0.0762777999207722  0.4999964929778004
 -0.0012391510948407  0.0208633186266930 -0.0000038704920203
  0.1670727781353163  0.1558306687695623 -0.0000036133097650
 -0.0178006944575868  0.2509340876754828  0.4999959179239714
  0.1675527598470722  0.4124628678592998  0.4999963376393645
