POSCAR file written by OVITO            
   1.0000000000000000     
    25.5239142078677972    1.5956722634594092    0.0000009438670863
     1.1393757146176515   17.1671662018832691   -0.0000012211164082
    -0.0000001660345038    0.0000004250968621    5.1751797024322306
   Mg   Nd
    88     6
Direct
  0.2882594065021702  0.1436104819143243 -0.0000031722343847
  0.3762540504717890 -0.0315501529911229  0.9999968266973107
  0.2563610162421381 -0.0226417678796005  0.9999968141772617
  0.4589050115331568  0.3183988178447366 -0.0000031897528157
  0.2998078500216204  0.4305831794927374  0.4999968273488392
  0.4000995942069898  0.2510841941405791  0.4999968401763431
  0.1349564645414955 -0.0269668656467757 -0.0000031859095594
  0.0382444810238846  0.1653245532077783 -0.0000031756350797
  0.4834023170640392  0.0912736903631960  0.4999968137813324
  0.4171779205323092  0.1485198083551874 -0.0000031601601268
  0.0389850765706103  0.4460439831703868  0.4999968220841151
  0.4244156973719522  0.4206765535373511  0.4999968148129356
  0.1990230449470284  0.3242901309836286 -0.0000031737042219
  0.2231598958748419  0.0711447311423461  0.4999968296853448
  0.1257732319851808  0.2565564754663170  0.4999968217970892
  0.0919527104824186  0.0829530723132953  0.4999968238424081
  0.2530785344468331  0.2466313131634897  0.4999968335432741
  0.0733038719935626  0.3356683580721029 -0.0000031639343084
  0.2848269950057954  0.6460418322244437 -0.0000031782560741
  0.3647921357154770  0.4870225913113928  0.9999968211847888
  0.2385714596489846  0.4864637609508539  0.9999968414346441
  0.4540874636841262  0.8118667775139793 -0.0000031874801245
  0.3189760811702824  0.9092939838257760  0.4999968199200289
  0.3989024501418992  0.7527158154784491  0.4999968081209450
  0.1000206084799303  0.5012320115523503 -0.0000031617982529
  0.0239989119842411  0.6585931681290949 -0.0000031714053739
  0.4740950936704932  0.5898174245472364  0.4999968092462361
  0.4091889511450490  0.6465346584168908 -0.0000031963891116
  0.0731192387010642  0.9128063757405387  0.4999968262234259
  0.4410840620403165  0.9202864563366290  0.4999968182505887
  0.2085315029052128  0.8051110580116533 -0.0000031917493295
  0.2243225144175061  0.5929890684484611  0.4999968144262957
  0.1481236211733427  0.7533998470055162  0.4999968191865446
  0.0911857246985813  0.6033145418829808  0.4999968228993217
  0.2745787075681602  0.7495691623504667  0.4999968035720736
  0.0825037126930522  0.8122955168132675 -0.0000031952628313
  0.7885235283808760  0.1607683687503690 -0.0000031827026656
  0.8727025081439997 -0.0057161304190987  0.9999968182560496
  0.7463998581886556 -0.0078150499146079  0.9999968133070218
  0.9293916321618003  0.3433119215481719 -0.0000031710235400
  0.7923798785964116  0.4408282001055052  0.4999968184659698
  0.8708052462051412  0.2770004569639813  0.4999968196960802
  0.6207837194288611 -0.0092601811313567 -0.0000031924833535
  0.5429884783247477  0.1561277322496111 -0.0000031859535922
  0.9668652098608588  0.0933754989063049  0.4999968172440234
  0.9149808659556051  0.1693490423375955 -0.0000031668047777
  0.5505787123138211  0.4264940804954573  0.4999968071314126
  0.9162111740749679  0.4435968018667192  0.4999968154488572
  0.5857131942284666  0.3321487848230692 -0.0000032031545319
  0.7275431538804854  0.0978163465392373  0.4999968068942744
  0.6385644376052330  0.2616635422594196  0.4999967914731505
  0.6054258054716349  0.0945998809426162  0.4999968012688514
  0.7531568702636173  0.2688229151243388  0.4999968161825663
  0.7728139253331618  0.6603370333926478 -0.0000031794243365
  0.8488556650657562  0.4999734000632891  0.9999968215162147
  0.7213350674531863  0.4950153265337242  0.9999968210405690
  0.9473739296503435  0.8234956702199668 -0.0000031927427467
  0.8103311693749640  0.9337861133538261  0.4999968120960623
  0.8875781053470192  0.7692898806066609  0.4999968223579623
  0.5308343033267622  0.6531191010351022 -0.0000031884647469
  0.9643792565971068  0.6096524642434998  0.4999968184123609
  0.8971787959514830  0.6633777565894221 -0.0000031895763052
  0.5646198569611606  0.9281977749560526  0.4999968002153315
  0.9356577548129391  0.9288923894903550  0.4999968225137379
  0.6975565086704280  0.8251546327809244 -0.0000031985546086
  0.7165958045093948  0.6003159422433847  0.4999968155315901
  0.6413274760395213  0.7649236567968630  0.4999968066779516
  0.5965263867673486  0.5888381676185160  0.4999968002799425
  0.7637762321018321  0.7682986177259202  0.4999968088373914
  0.5749116410038482  0.8217034512992943 -0.0000031924894416
  0.3303155837287919  0.8052652685718237 -0.0000031924770312
  0.3517810683769918  0.5921074349087048  0.4999968137085623
 -0.0256815273941672  0.4986042895356992 -0.0000031729015580
  0.1570746093555072  0.6452670654386513 -0.0000031744389051
  0.0155909786605680  0.7683547145197054  0.4999968098379425
  0.1967491307969819  0.9077222428806334  0.4999968236092418
  0.8010719139695067  0.3374919300642943 -0.0000031833919060
  0.8487467552646271  0.1000845553728354  0.4999968176884581
  0.4951624054317448 -0.0139340417647342 -0.0000031763566201
  0.6654974637377146  0.1631970859167859 -0.0000032026961722
  0.5217167747101684  0.2584650302435328  0.4999968160290731
  0.6718821011954026  0.4258262617275979  0.4999968248828485
  0.8215977606882835  0.8269538087773644 -0.0000031884127217
  0.8405172829879014  0.6058109217257648  0.4999968179347150
  0.4917943772820246  0.4873153202880167 -0.0000031965935643
  0.6505251415429766  0.6583026301913600 -0.0000032007491599
  0.5206260247792350  0.7593442537928713  0.4999967886611481
  0.6873511097107121  0.9325116328654830  0.4999968013982246
  0.3262127263269886  0.3123326905783573 -0.0000031838666241
  0.3505051135203986  0.0873197128050067  0.4999968310789963
  0.0068722731683712 -0.0080234361999783 -0.0000031886557251
  0.1640458574488830  0.1571826163420286 -0.0000031744144898
 -0.0005973490175397  0.2652505348478261  0.4999968214270149
  0.1685630240209109  0.4233413719837029  0.4999968004858680
