POSCAR file written by OVITO            
   1.00000000000000     
    25.2367395601179680    1.9434378401040013    0.0003188131511246
     1.3598996877999812   16.9898831815391951   -0.0020240467108278
    -0.0001188624681176    0.0006376275083246    5.1426115450125431
   Mg   Nd
    85     6
Direct
  0.3010691460420616  0.1383397221422257  0.0109727250306978
  0.3672592368033199 -0.0237031426233899  0.0109287584073868
  0.2457858075403753 -0.0241202965007637  0.0109602641825543
  0.5441633739683387  0.3079121274965066  0.0109803117058345
  0.2953994599154319  0.4192008844517134  0.5110101135038922
  0.4815426639823750  0.2555751682212569  0.5109683561066287
  0.1166925910214701 -0.0310368015494732  0.0109655798968822
  0.0253925678105538  0.1693496787747438  0.0109759094470042
  0.5655106444709395  0.0936595413671242  0.5110067011568029
  0.4944917587890884  0.1501821057788003  0.0109744928628910
  0.0375735685549041  0.4575087957929924  0.5109940966471378
  0.4137781133357906  0.4188355427548415  0.5109877318783020
  0.2205399444549748  0.3068076077711186  0.0109685694790359
  0.2437297424936107  0.0846995765210834  0.5109630315825677
  0.1415913451669643  0.2442177468997633  0.5109678113764525
  0.0811053161769877  0.0872192989635685  0.5109734228854665
  0.2811387194431293  0.2437983575162870  0.5109581967674722
  0.0867586981402602  0.3319904931465262  0.0109769983931391
  0.2733444047556460  0.6522973682563936  0.0109968282595794
  0.3501837602546694  0.4882721254512771  0.0110114715173937
  0.2289057978909133  0.4869016244636235  0.0109812295536656
  0.4433037334816831  0.8032150425332303  0.0109320220179248
  0.3127980873285744  0.9213976913738406  0.5109318240611830
  0.3868200857885231  0.7493797588868009  0.5109269207436752
  0.0969243813266669  0.5053767825864022  0.0109800894624811
  0.0131772031252841  0.6583990102627960  0.0110445779237317
  0.4629042840287297  0.5815683372773710  0.5109475884846335
  0.3973861177107768  0.6438711889747010  0.0109452943635160
  0.0573323289159567  0.9193954068971167  0.5109779540349524
  0.4324216179455520  0.9063501076887038  0.5109485376566940
  0.1960795482270022  0.8141984745424201  0.0109961639553170
  0.2155600587156476  0.5934750181640995  0.5109924275747159
  0.1384611390949101  0.7657147788885619  0.5110177483984746
  0.0857547131273672  0.6109126605937477  0.5110206614064667
  0.2624982736895647  0.7604478584226145  0.5109828232656755
  0.0661861160448311  0.8137731279691355  0.0110099834955876
  0.7614949489210379  0.1573024532511703  0.0109929510460725
  0.8522571907285583 -0.0056354518181855  0.0110193850353448
  0.7250832767928366 -0.0100404177536004  0.0110104328097395
  0.9261738767387623  0.3335953296708803  0.0109891003972468
  0.7878824739381564  0.4340472702953412  0.5109092178357959
  0.8716509105896741  0.2757263543583765  0.5109595511371290
  0.6009744007699032 -0.0163790599910527  0.0110307639691732
  0.9550371861678183  0.1124784586786481  0.5109715435644254
  0.8928632714226313  0.1667234144096715  0.0109682501194183
  0.5399645212479223  0.4180584844161937  0.5109851658246743
  0.9126122542488803  0.4429202944293454  0.5109868120010410
  0.7021031228721992  0.0991506752077256  0.5110058252515614
  0.6747551756552935  0.3147739721162240  0.0109936888396764
  0.6308027446319054  0.1500641128039462  0.0110028003965430
  0.7457282635244921  0.2653254873853563  0.5109691974582128
  0.7627836646533337  0.6580948477058406  0.0109963913387534
  0.8406595425018515  0.4954145353861960  0.0109629875600306
  0.9329181802780734  0.8268715137016412  0.0110127943679324
  0.7922800576436930  0.9370336430293700  0.5110039068950420
  0.8749384813376103  0.7718244198862724  0.5110064014724585
  0.5963635996077936  0.4747444233717966  0.0110085350507071
  0.5199664912739225  0.6376405563871234  0.0109652093362681
  0.9553538558837026  0.6114465888424261  0.5110340091160418
  0.8870659564347302  0.6613680749282318  0.0110121134780570
  0.5487780855839923  0.9185419947617942  0.5110182099326638
  0.9188555317190359  0.9389682229020796  0.5110012476861479
  0.6837169897142459  0.8191794750659461  0.0110028531599127
  0.7110401884189360  0.5903768431820984  0.5110309676690558
  0.6317114193839074  0.7541985246429750  0.5110025951447256
  0.5879999131003679  0.5838496743154482  0.5110047727778250
  0.7524796885039700  0.7656102069018391  0.5110020249634027
  0.5627846556311551  0.8108717364543058  0.0109774748848826
  0.3209174943645073  0.8116601510850500  0.0109372152359489
  0.3390518553019858  0.5921512326091463  0.5109891186396935
 -0.0296431959623371  0.4903508761743468  0.0110022936598130
  0.1482244030457429  0.6545889379250149  0.0110036428673062
  0.0017961965342429  0.7738760994271364  0.5110361400896303
  0.1848823281065740  0.9374103521041913  0.5109687362637440
  0.7994682620501139  0.3253744625510440  0.0109407807993182
  0.8320260119408340  0.1041375015809253  0.5109933191149213
  0.4823329767548717 -0.0223006729705116  0.0109867982773940
  0.6168381575301868  0.2572741885058650  0.5109807326760406
  0.6672389067114072  0.4259071348225039  0.5110305786416076
  0.8065026750074246  0.8267315395534938  0.0110033401531300
  0.8322384419732386  0.6032057744912177  0.5109957884116044
  0.4707397091052718  0.4695810102526721  0.0109838284847368
  0.6419967402265438  0.6438441864322997  0.0110157268087306
  0.5101520744142150  0.7452388449436389  0.5109562413247971
  0.6690086597865343  0.9294326270329835  0.5110250172727866
  0.3757151357057429  0.2906947503425842  0.0109851945250327
  0.4064214039481719  0.1032326498667117  0.5109775169074430
 -0.0113468613526597 -0.0029231209178629  0.0109625955611181
  0.1584240266353770  0.1418546952619790  0.0109662546594644
  0.0092026815109095  0.2794871669856739  0.5109746456120768
  0.1647599161777874  0.4175241038567524  0.5109747510077803
