SCAR file written by OVITO              
   1.0000000000000000     
    25.3326388934388760    1.5866120318197690    0.0000150257011248
     1.1285517204614191   17.2958755388077456   -0.0000144442868632
     0.0000029840206412   -0.0000041619944210    5.1629883293304975
   Mg   Nd
    87     6
Direct
  0.3019294640210236  0.1687381290438248 -0.0000038968528621
  0.4175444886852591 -0.0076880238597777  0.9999967417799310
  0.2763915172105695  0.0039126929050789 -0.0000031110138536
  0.4670606862758169  0.3264065366497198 -0.0000033120244115
  0.2797101122412856  0.4240120412310447  0.4999966866266800
  0.4014599099390264  0.2429369191747074  0.4999965854717541
  0.1492030239822679  0.0020620867170653 -0.0000033178117297
  0.0543080573472081  0.1840798455377604 -0.0000018613864163
  0.4722055023972008  0.0710253519142544  0.4999968125993576
  0.4214004383559471  0.1607463035385155 -0.0000029872310342
  0.0207028421350583  0.4278544916311076  0.4999967253371350
  0.4019852043417158  0.4138781199397659  0.4999970126372377
  0.2119683089270423  0.3473988085643986 -0.0000014509676808
  0.2157534455596332  0.0634015347166188  0.4999968801561637
  0.1208474393609476  0.2499450369763603  0.4999960635714368
  0.0898943930435602  0.0814459344216595  0.4999966320118016
  0.2533994913547147  0.2498802196586564  0.4999964988327276
  0.0838292540830475  0.3505315404512231 -0.0000029915200044
  0.3038639910338714  0.6820859462854874 -0.0000031718007310
  0.3855860685035499  0.5091144677436156  0.9999966936285413
  0.2523592182110633  0.5153679048386541  0.9999966556934995
  0.4820915908515788  0.8286083236598382 -0.0000032914432481
  0.2897916582778032  0.9027585466857317  0.4999970695521771
  0.3662061652904631  0.7370142212937928  0.4999966453469840
  0.1300208086209311  0.5323662208234965 -0.0000029545131874
  0.0540639585376623  0.6909562622567446 -0.0000031745472274
  0.4485790372986892  0.5675430944128342  0.4999968458482893
  0.4290493494708810  0.6730307049166367 -0.0000034400884966
  0.0375886146598315  0.9046263586459956  0.4999970411378181
  0.4173292564777076  0.8956761877617024  0.4999969585957919
  0.2293063662187323  0.8462750048099484 -0.0000030056804703
  0.1934718626618333  0.5880763053710450  0.4999968601249736
  0.1139568446893053  0.7433802418100709  0.4999970661472462
  0.0666131193388999  0.5850446485108991  0.4999964765903487
  0.2403991228968643  0.7430800061435154  0.4999969308682575
  0.1005149017119437  0.8493989233955684 -0.0000028940130982
  0.7968224922723058  0.1813675705824736 -0.0000031480601669
  0.8845852993469243  0.0217997198759384  0.9999969247519934
  0.7647128046761165  0.0089569429843619  0.9999968068500131
  0.9615718509015160  0.3662930593960598 -0.0000031268981918
  0.7716253244623121  0.4020639524190430  0.4999967815211324
  0.8572088941122554  0.2435730080621998  0.4999966806430588
  0.6420723533251373 -0.0054088182917996 -0.0000031339885275
  0.5447870760547511  0.1503702793974231 -0.0000032867345205
  0.9420176002689814  0.0869357577573168  0.4999964751622918
  0.9251639704613489  0.1888868774693535 -0.0000032254178494
  0.5237388252596922  0.4008060121568477  0.4999968028431083
  0.8974283582618838  0.4133882949508475  0.4999965483893846
  0.7149177251990741  0.3412172004885529 -0.0000032073880848
  0.7008715187561199  0.0617119060453683  0.4999966553644192
  0.5955539857782757  0.2297622647369888  0.4999969492872551
  0.5867163173575644  0.0529614812405553  0.4999965628436328
  0.7284894709766209  0.2348328738420851  0.4999968018225189
  0.5890352802794397  0.3326902198414245 -0.0000030773229955
  0.8069804866302348  0.6802146632849984 -0.0000032924316921
  0.8840824419621440  0.5224467807281722  0.9999968861767879
  0.7598913458140492  0.5102023717713428  0.9999968565012627
  0.9758298175869047  0.8484467467318629 -0.0000030822048399
  0.7852053391600917  0.9042375454325863  0.4999967116234835
  0.8632661610933967  0.7444774291238012  0.4999970062368626
  0.6329066487455874  0.5022139854167638 -0.0000033466144324
  0.5556365807383807  0.6646748331899166 -0.0000033371092634
  0.9390206646490014  0.5829753717312629  0.4999970493870056
  0.9298798712165698  0.6893669555950090 -0.0000027824532487
  0.5378494928421462  0.8967688264411324  0.4999964471085588
  0.9134894237667718  0.9172720757925469  0.4999970095436840
  0.7282001759579461  0.8387685806021421 -0.0000033415696452
  0.6929255245606700  0.5624000847654557  0.4999966983835034
  0.6147950261760160  0.7261415021221301  0.4999966735449943
  0.5699276539891878  0.5612487332410619  0.4999965538901648
  0.7388811055656306  0.7322227556272191  0.4999966320054930
  0.6043907298688606  0.8295935019258935 -0.0000033773331039
  0.3553883194466254  0.8456105868008049 -0.0000030956432764
  0.3227529124953719  0.5782446121394772  0.4999970079527756
  0.0098639106440631  0.5293533218659419 -0.0000034081347640
  0.1802600712659329  0.6916703597641419 -0.0000030445963434
 -0.0127651126495393  0.7425679400057829  0.4999969511551871
  0.1596863739423411  0.9037341081648430  0.4999969365781755
  0.8413145395744620  0.3497244755000501 -0.0000035251955361
  0.8185413595381277  0.0749624622969724  0.4999969018069935
  0.6696533141070052  0.1691859744055520 -0.0000032092257790
  0.6469950677657091  0.3945311259610244  0.4999967237197064
  0.8512784732219882  0.8505210844115677 -0.0000030067405863
  0.8160595266610167  0.5713999052249404  0.4999967027775892
  0.6817942995203917  0.6694601351781228 -0.0000032972577737
  0.4913916245764170  0.7276682411749619  0.4999968049207462
  0.6610264565532481  0.8913514230111685  0.4999967306589005
  0.3364537441728331  0.3331661477824714 -0.0000030987300900
  0.3453229468767137  0.0786337700785736  0.4999976064441388
  0.0144073250119249  0.0222812023093712 -0.0000032467516448
  0.1783997548938831  0.1767704455235939 -0.0000026148724084
 -0.0046893098209212  0.2500995337783280  0.4999951675113896
  0.1545548541155075  0.4160181395664538  0.4999946146047458
