POSCAR file written by OVITO            
   1.00000000000000     
    25.2829779317740879    1.8571768673016464    0.0000002322240328
     1.3603809255665873   16.9654251421833493    0.0000002821276408
     0.0000000047843103    0.0000001750577948    5.1537927318289212
   Mg   Nd
    86     6
Direct
  0.3061066799137953  0.1409624171393228  0.9999968351690290
  0.3717597678540394  0.9787742847471979  0.9999968312332044
  0.2505088864729338  0.9782920868456519  0.9999968415045688
  0.2996771507948202  0.4213674697972978  0.4999968149265899
  0.4871858262743383  0.2579121743339370  0.4999968207299544
  0.1215511135052261  0.9707530343342990  0.9999968293657489
  0.0305410233994369  0.1707547808227183  0.9999968148654194
  0.5712347953736346  0.0961334729920939  0.4999968164984311
  0.5004613537731368  0.1521359803551499  0.9999968124586475
  0.0424547071175676  0.4600759253326100  0.4999968056698885
  0.4179461328291318  0.4206779343771741  0.4999968132244491
  0.2263795925461150  0.3095380561536129  0.9999968604962036
  0.2486336306090645  0.0871740063411877  0.4999968095898524
  0.1483249594279264  0.2458077420555757  0.4999968318343163
  0.0865083344836671  0.0890703099480596  0.4999968237941487
  0.2871236601196356  0.2459013231255324  0.4999967991417408
  0.0926518986018923  0.3336616471951105  0.9999968387721626
  0.2781386678982308  0.6545832293504181  0.9999968225491712
  0.3544111226949178  0.4899278606107164  0.9999968267859599
  0.2330317584473056  0.4899454198402632  0.9999968685969948
  0.4474365062202845  0.8055778003417368  0.9999968014928202
  0.3172338809689554  0.9238281262425443  0.4999968049210323
  0.3908366998165105  0.7517892967332982  0.4999968226538626
  0.1016615201494644  0.5077527510386672  0.9999968710840434
  0.0179348438560462  0.6604151323761782  0.9999968117303054
  0.4668856078843770  0.5839545931020708  0.4999968196948287
  0.4016990742584260  0.6460107755204539  0.9999968072061877
  0.0622696471711353  0.9214287429512694  0.4999968174309899
  0.4365055261880661  0.9088228289955497  0.4999968262379752
  0.2009670375482827  0.8163958081252144  0.9999968197905675
  0.2201122601215635  0.5962142816016029  0.4999968078666440
  0.1433512643391169  0.7683162661824406  0.4999968245492073
  0.0904750529274406  0.6136808501969074  0.4999968170895029
  0.2670653659868208  0.7628013003894135  0.4999968147428144
  0.0711248034832583  0.8154156160228877  0.9999968041056134
  0.7669723232185701  0.1581199293509011  0.9999968187722033
  0.8571366453862552  0.9957069829331049  0.9999968260252319
  0.7297928960819873  0.9913111420828030  0.9999968112070621
  0.9340687282618991  0.3336984067422258  0.9999968313041449
  0.7940756512994445  0.4351690186473359  0.4999968090161602
  0.8782620872314634  0.2771116091526571  0.4999968001738962
  0.6054960900305422  0.9854335597155802  0.9999968130830723
  0.9606679881002620  0.1140362314571611  0.4999968076760626
  0.8984861504174124  0.1675305931281170  0.9999968313569736
  0.5436636050625615  0.4198297707973552  0.4999968146877762
  0.9186580992256925  0.4434994138863094  0.4999968114138014
  0.6807302049313358  0.3163249686804579  0.9999968195255488
  0.7075492653803847  0.1009142951624157  0.4999968153086346
  0.6220209265002908  0.2592549339236102  0.4999968169957184
  0.7517624766563750  0.2666364211696050  0.4999968151151962
  0.5496810946471666  0.3097103295387515  0.9999968137092237
  0.7676943116528870  0.6578224375347036  0.9999968169842504
  0.8486630152609119  0.4953093576730332  0.9999968191396319
  0.7238929165107224  0.4862858218203695  0.9999968183015182
  0.9374505636064079  0.8284187090508622  0.9999968124719487
  0.7969957393530576  0.9385423140058395  0.4999968149198820
  0.8794016391360753  0.7735281657344536  0.4999968147475894
  0.5992475497237262  0.4771564537092191  0.9999968176475349
  0.5236082242705683  0.6402874144365472  0.9999968074901202
  0.9601234060613753  0.6138152595815759  0.4999968104782723
  0.8918779089986628  0.6632766493882748  0.9999968270368951
  0.5526384081907761  0.9217687418325976  0.4999968232978346
  0.9235005635571324  0.9407335422169253  0.4999968085353428
  0.6882977245251932  0.8209162667252444  0.9999968159534873
  0.7143395571213849  0.5959613470889535  0.4999968084449331
  0.6349541681283721  0.7584270055199079  0.4999968135643652
  0.5914897698184526  0.5867176649218014  0.4999968130342793
  0.7567138029589259  0.7670394862120934  0.4999968146117693
  0.5665854218372881  0.8138233639058136  0.9999968119289731
  0.3254540190375648  0.8141482635294598  0.9999968192149070
  0.3433060095778577  0.5941805760586313  0.4999968141085628
  0.9757297560406643  0.4924220204418943  0.9999968210564985
  0.1531110690736973  0.6569774962758741  0.9999968101892310
  0.0063571089199748  0.7763075260594278  0.4999968295669674
  0.1896677930892946  0.9397132801215439  0.4999968073222898
  0.8073849750238977  0.3245857891258246  0.9999968237568027
  0.8374388589089755  0.1057466572187507  0.4999968082132895
  0.4866319861855239  0.9801186866501563  0.9999968184724962
  0.6364435114600593  0.1517087014716036  0.9999968061333320
  0.6696591027461839  0.4261831705508461  0.4999968134158763
  0.8112221554793140  0.8277465432503492  0.9999968076666261
  0.8373736402187237  0.6045602644248699  0.4999968066801867
  0.4748263165502413  0.4706895317611256  0.9999968218334984
  0.6446141971081129  0.6494497045171587  0.9999968183079841
  0.5138070273872117  0.7478518809842126  0.4999968263110259
  0.6733900760355747  0.9315537587478804  0.4999968200090734
  0.3824111015020435  0.2920120335159445  0.9999968287779240
  0.4119022977357132  0.1055927218139203  0.4999968137713824
  0.9935716196773694  0.9980943915492021  0.9999968357000739
  0.1633931053668547  0.1439105046954630  0.9999968139930427
  0.0162432702828943  0.2805983234006073  0.4999968216834242
  0.1692027013920198  0.4203805125905102  0.4999967120531894
