POSCAR file written by OVITO            
   1.0000000000000000     
    25.0798039042428762    0.8801772540401687   -0.0000000542528740
     0.6329641610366328   17.3003517333412411    0.0000000965316301
     0.0000000843684588   -0.0000001659674261    5.1875804108627754
   Mg   Nd
    88     6
Direct
  0.2942125663122362  0.1552751952995340 -0.0000030076640612
  0.3792065356344455 -0.0254497949960994  0.9999969910046658
  0.2612715897967621 -0.0070607422823584  0.9999969834226342
  0.4603736839013407  0.3279767962059793 -0.0000030511812351
  0.2980605854205273  0.4347956021974347  0.4999969091458260
  0.4007013993107597  0.2551271266220094  0.4999969189816336
  0.1390616361465639 -0.0099047839949152 -0.0000031910762522
  0.0475183768014479  0.1728413959151989 -0.0000030430890951
  0.4832480796747289  0.1058537983980599  0.4999969522206554
  0.4176735668253880  0.1564034992387139 -0.0000029879938906
  0.0275260734376206  0.4201106206243464  0.4999969579686841
  0.4258271697699410  0.4285391106059028  0.4999969216078042
  0.2063188142853123  0.3288774111531992 -0.0000030238727058
  0.2158228169257572  0.0624053315972682  0.4999970328378816
  0.1209035247328269  0.2470451202430886  0.4999970386741986
  0.0856955352932115  0.0743498208857566  0.4999969273919745
  0.2538595700872858  0.2464463027527416  0.4999969535004971
  0.0825738764828158  0.3395122795492558 -0.0000030628416819
  0.2893792046692306  0.6523031705050368 -0.0000031860686085
  0.3678592355681690  0.4983229912308433  0.9999969041976946
  0.2423445083325828  0.4916058536249786  0.9999970215616782
  0.4583130248876388  0.8245110148780312 -0.0000030606475149
  0.3050980924467900  0.9093673702686464  0.4999969973502688
  0.3973265397113469  0.7629547482297552  0.4999969465528032
  0.1213004062156158  0.5126391644482134 -0.0000030532585797
  0.0497375509515191  0.6774132973930694 -0.0000030562798533
  0.4760932294331505  0.6063071279678531  0.4999969284472276
  0.4131108426336511  0.6585387847546955 -0.0000030788855360
  0.0403511082505373  0.8966954466600304  0.4999970023851503
  0.4403390790315126  0.9304663644251850  0.4999969734828288
  0.2169654146063729  0.8306731114918493 -0.0000032771401882
  0.2124543809495406  0.5874212191898108  0.4999970029919446
  0.1208752073347704  0.7388957701264952  0.4999970199118863
  0.0729634495361963  0.5786159425565633  0.4999969534095327
  0.2599701741037306  0.7473619530353069  0.4999967598349163
  0.0944923234882367  0.8362791111402645 -0.0000030199703838
  0.7967009019210447  0.1600164398455667 -0.0000030616163680
  0.8779260045682183  0.0040736947003701  0.9999969371517874
  0.7566388281260773 -0.0114923251532033  0.9999969441360046
  0.9605146996736831  0.3541995795150516 -0.0000030553523527
  0.7722685788096297  0.3747200029408957  0.4999969319961366
  0.8562143014411805  0.2252410885215854  0.4999969488587521
  0.6247676195002630  0.0053563855416072 -0.0000030574675407
  0.5425627846169928  0.1716197670678320 -0.0000030571987250
  0.9376874610530651  0.0746765942318708  0.4999969931726655
  0.9222674884952584  0.1740843064947100 -0.0000030718890213
  0.5578090624342092  0.4575846515776087  0.4999969207081760
  0.8986938017255108  0.3992633545499203  0.4999969464047600
  0.7140922762802323  0.3248225194827405 -0.0000030596326873
  0.6068250617772869  0.1344496005220320  0.4999969435330509
  0.6476292918276959  0.3290517114913474  0.4999969275908352
  0.7320893016598046  0.1973885631589536  0.4999969406295307
  0.5821245490681396  0.3431047266814019 -0.0000030629830443
  0.8007896731792468  0.6604415879073754 -0.0000030633540610
  0.8796304507415679  0.5058402904488412  0.9999969313309147
  0.7551462103604487  0.4923700534774989  0.9999969377686384
  0.9712226935249337  0.8317400771413646 -0.0000030442109115
  0.7804842730613202  0.8742299907576541  0.4999969385740330
  0.8622474757513648  0.7260756172287210  0.4999969503360210
  0.6211082682846786  0.5087479022933347 -0.0000030755207465
  0.5376116038242520  0.6712177452669713 -0.0000030730199600
  0.9392913315742637  0.5687389591530118  0.4999969486099209
  0.9249942443402605  0.6731578486078126 -0.0000030607485827
  0.5664182244210397  0.9570493817285570  0.4999969439781355
  0.9124412446518332  0.9025468607904062  0.4999969451040187
  0.7168303201515746  0.8237144582322542 -0.0000030636185744
  0.6902457686002086  0.5141108245811769  0.4999969250647512
  0.6478947474547603  0.8184620084349870  0.4999969523946635
  0.6016734969051789  0.6365215161280089  0.4999969345309137
  0.7364647305705516  0.6961218046352142  0.4999969345696481
  0.5825311641058781  0.8392179965833226 -0.0000030693690536
  0.3347793051362818  0.8111755731240312 -0.0000030297956688
  0.3499994125213943  0.6004501026971624  0.4999968503771833
  0.0024824310691236  0.5199654599982542 -0.0000030629101412
  0.1709723607265911  0.6714333727259034 -0.0000029453197137
 -0.0108255034943795  0.7297493487665235  0.4999969520800022
  0.1668976412644151  0.8996513712492620  0.4999967383113159
  0.8405521110567701  0.3310826110470799 -0.0000030644699857
  0.8117165891742887  0.0492797365738809  0.4999969407649048
  0.4981230414398964 -0.0000945540743141 -0.0000030490188039
  0.6698186798189112  0.1647050207739882 -0.0000030558406234
  0.5265193731197696  0.2821309945773848  0.4999969332551822
  0.8451806800918793  0.8309203839191485 -0.0000030604481177
  0.8148048604728324  0.5488712601872815  0.4999969381646173
  0.4931572205158383  0.5009401199541278 -0.0000030768438803
  0.6691933872344361  0.6659775400084467 -0.0000030723899933
  0.5230912856459785  0.7826083228467052  0.4999969448727196
  0.6909605326492587  0.0028191949062329  0.4999969481729472
  0.3303495087180324  0.3222178732536314 -0.0000029083585606
  0.3469716456062709  0.0870095338620018  0.4999969661913243
  0.0072558916040699  0.0079267495217468 -0.0000031230646540
  0.1709430570466700  0.1639474963551793 -0.0000031726842405
 -0.0065696301727444  0.2409718881839611  0.4999968997169528
  0.1659574662831413  0.4121045490338729  0.4999969768626025
