SCAR file written by OVITO              
   1.0000000000000000     
    24.2975891637491834    0.2406182033222959   -0.0000017902737971
     0.1504230326007285   17.2885150328523345    0.0000034191584228
    -0.0000000882653841   -0.0000005361504796    5.1787366895970166
   Mg   Nd
    85     6
Direct
  0.3164912857962567  0.2300368014843858 -0.0000031329354738
  0.4157377833415614  0.0680103823690220 -0.0000031222353674
  0.2796850535392727  0.0577283161247947 -0.0000031393231664
  0.5786095628534388  0.2732742375273121 -0.0000031533717444
  0.3029668267362340  0.5150050036706866  0.4999968616122376
  0.3919625465632945  0.3080758838166418  0.4999969051569683
  0.1492633915325874  0.0373004665079140 -0.0000030730596374
  0.0562544155055814  0.2076851390500640 -0.0000030078536752
  0.4775420306385642  0.1425292281554559  0.4999969035305624
  0.4450558825055757  0.2415741318421303 -0.0000031069357877
  0.0244812785396090  0.4466829811773763  0.4999968931563045
  0.5144002139599785  0.3211874733473714  0.4999968580983100
  0.2160471116749257  0.3870256319801396 -0.0000030267883339
  0.2156409345431926  0.1032635312895713  0.4999969623497461
  0.1262541682638328  0.2875091320115242  0.4999969649406840
  0.0886841349935168  0.1107051227457023  0.4999969247063575
  0.2611364937936262  0.3053508484036690  0.4999969153391405
  0.0870518154500787  0.3799371389397457 -0.0000031051910267
  0.3070973073448431  0.7313752342021850 -0.0000030354926748
  0.4845049635045392  0.4210633294022263 -0.0000031470206282
  0.2491905965267727  0.5600635484809035  0.9999968909219592
  0.4418603345954214  0.7508722804618244 -0.0000030565160814
  0.2936118182342795  0.9555712415912654  0.4999969203988775
  0.3717457650330842  0.7926565038339207  0.4999969496587863
  0.1254346638786623  0.5627881178702918 -0.0000030893415972
  0.0476204528012683  0.7125585334383089 -0.0000031386700656
  0.3896607117911412  0.5819369788010627 -0.0000030913476241
  0.0301395568762556  0.9229299703517416  0.4999969206555181
  0.4250727587964616  0.9679954030791863  0.4999969172397584
  0.2299160822755721  0.8933061624726100 -0.0000030579889306
  0.1982019552927645  0.6367488190138600  0.4999968685317439
  0.1106457914936377  0.7747542209527893  0.4999968895821276
  0.0653279869430951  0.6100408249659209  0.4999968848434709
  0.2414967408239169  0.7958369864708937  0.4999969217370198
  0.0964568851142212  0.8773851325823179 -0.0000030878979551
  0.7946799433542551  0.1621468237216936 -0.0000030730824611
  0.8782859764112834  0.0158086181180157  0.9999969257910615
  0.7522536526354615 -0.0170266097603945  0.9999968910678154
  0.9602059968238480  0.3754096259447054 -0.0000030228709552
  0.7651048789558716  0.3795713209995772  0.4999969377015697
  0.8535411717701953  0.2341971678023165  0.4999969389458960
  0.6247582470317250 -0.0492184179049644 -0.0000031407274687
  0.5439526067431268  0.0981854701810554 -0.0000031523639882
  0.9369985533330236  0.0892393283695240  0.4999969260686857
  0.9231608651577454  0.1909263712908400 -0.0000030214361232
  0.8942823115768826  0.4120149502861203  0.4999969614428540
  0.7077793489271306  0.3069864467741993 -0.0000031079122122
  0.6806256891037659  0.0218983167144107  0.4999969019149313
  0.5537507942664673 -0.0084693051312582  0.4999968839229262
  0.7251849216532205  0.2032729691314022  0.4999969009006013
  0.7899438671129487  0.6619999491577829 -0.0000030990400431
  0.8734802098716706  0.5173970992071805 -0.0000030700332320
  0.7455936233806505  0.4840182882026898  0.9999969161402011
  0.9667494544670520  0.8593597601652193 -0.0000031018860558
  0.7660550057233276  0.8789038233227205  0.4999969034666954
  0.8493296967899820  0.7338244929482345  0.4999969123399614
  0.6155287637117582  0.4519434907725828 -0.0000031091148442
  0.5254970362536512  0.5997057992516753 -0.0000030906661194
  0.9324488538589170  0.5868547979618550  0.4999969080816962
  0.9180160628124912  0.6922173879509965 -0.0000031169237539
  0.5039001856228249  0.8177622067775701  0.4999968899288947
  0.9011830744424824  0.9140665550671698  0.4999968991050127
  0.7070677483500817  0.8063696316928012 -0.0000031026848519
  0.6757500300748841  0.5246999003737749  0.4999968956708838
  0.5886441139301712  0.6716615090448291  0.4999968888050420
  0.5493508914010541  0.4972817310561967  0.4999968738166478
  0.7192308965174794  0.7011679403643519  0.4999969179838485
  0.5753367537051313  0.7756153920625153 -0.0000031157943472
  0.3613059611752782  0.9046178284963952 -0.0000030610696883
  0.4245684794072401  0.4765114766965776  0.4999968679029527
  0.0013897843598917  0.5469420618275136 -0.0000031099647608
  0.1783801735802362  0.7311736924953797 -0.0000031010585600
 -0.0211841017151241  0.7536315616758842  0.4999968633895781
  0.1561090455529904  0.9407043503765535  0.4999969136073463
  0.8367368117503128  0.3379961341461496 -0.0000030649072255
  0.8070735418847034  0.0548377827668764  0.4999969246464104
  0.4949120281186331 -0.0781705613927282 -0.0000031040850966
  0.6696014801585733  0.1299993408663134 -0.0000031142203466
  0.6001455823133978  0.1707013709033093  0.4999968583194588
  0.6385088109428326  0.3487499164205049  0.4999968818931150
  0.8366192602623077  0.8390381228161543 -0.0000030852421759
  0.8039706906971131  0.5554778089151658  0.4999969310981603
  0.6590613251565427  0.6305988978143890 -0.0000031223206260
  0.4566263572396291  0.6481000592887901  0.4999969187898479
  0.6350022175100895  0.8451578383223242  0.4999968854139771
  0.3430537165929443  0.4043507940090199 -0.0000031118826496
  0.3457478780618229  0.1370916024246667  0.4999969570496550
  0.0130096848324727  0.0390607867487305 -0.0000030778845354
  0.1855790665154509  0.2145563245642730 -0.0000032315707255
 -0.0053219903088960  0.2634925618080402  0.4999969023859419
  0.1692361425838903  0.4594242516775688  0.4999968466612761
