POSCAR file written by OVITO            
   1.00000000000000     
    25.5317102225686128    1.7212871408562516   -0.0000019471197230
     1.2267236311707492   17.1227047462331541    0.0000049920416891
    -0.0000004742511894    0.0000014501084169    5.1672294643700996
   Mg   Nd
    85     6
Direct
  0.2856052154023503  0.1423177521653973 -0.0000039578666170
  0.3740158419301155 -0.0329266927685890  0.9999963749095604
  0.2538127913320999 -0.0239905014147318  0.9999967576236701
  0.4592542834114072  0.3168592449906399 -0.0000049284431927
  0.3000545864989648  0.4293786399085999  0.4999964627311345
  0.3991838817320347  0.2502865482992703  0.4999962887326547
  0.1318115270694317 -0.0271179473049799 -0.0000034714857951
  0.0342592614001982  0.1676328111366187 -0.0000032644961044
  0.4813913002402599  0.0881482214223075  0.4999956652060510
  0.4162394050677817  0.1468230893101557 -0.0000039272814786
  0.0387471025413368  0.4484690745495670  0.4999964507353158
  0.4262913941792052  0.4185338454803343  0.4999962894664537
  0.1970963471456235  0.3236291559830778 -0.0000033128827183
  0.2213131981460762  0.0712746451239144  0.4999967217696185
  0.1247785169114850  0.2581096756630352  0.4999965258202215
  0.0881921017567116  0.0847318605804895  0.4999966918860567
  0.2515308399004579  0.2463734082590174  0.4999964907581123
  0.0718986300952942  0.3370690913981870 -0.0000035690083585
  0.2839493346139931  0.6449635741213231 -0.0000031903907114
  0.3642946301996912  0.4844317159760790  0.9999964981504693
  0.2382044291481814  0.4854763428942069  0.9999965239791431
  0.4527911547389885  0.8094952481612235 -0.0000032945432152
  0.3169869640686022  0.9087806381662686  0.4999966949370199
  0.3976211216903480  0.7513054066043958  0.4999968837034324
  0.0989786590945383  0.5019653556418661 -0.0000034929671760
  0.0220327164035434  0.6592039466136054 -0.0000035967287126
  0.4740346206258402  0.5871795589919047  0.4999977276148131
  0.4085235713250810  0.6447561693558630 -0.0000028514932138
  0.0702191127527235  0.9140085962096404  0.4999965048687092
  0.4393973996307908  0.9184664246293108  0.4999965139753711
  0.2066443616165252  0.8045324810404103 -0.0000032959101772
  0.2237561500987915  0.5930333462720688  0.4999966640770411
  0.1463711984132237  0.7541468814993324  0.4999966596906961
  0.0899705927776940  0.6048434465657526  0.4999964618092406
  0.2730955591361400  0.7491821493381622  0.4999967800486594
  0.0799547842857984  0.8125533942118874 -0.0000033623305957
  0.7774024653517676  0.1648139687583501 -0.0000060829959842
  0.8691021486011778 -0.0030714274098420  0.9999956202118961
  0.7434415199866923 -0.0065121618941593  0.9999955855639261
  0.9260692396493703  0.3445999061994261 -0.0000036448433880
  0.7932681207932680  0.4407681668491212  0.4999944030320201
  0.8703330139875961  0.2779791980787969  0.4999961225533627
  0.6190792743448822 -0.0101100493050979 -0.0000045350670279
  0.5427666208735442  0.1527829762692246 -0.0000068671598407
  0.9616215353380512  0.0988264596238830  0.4999962544197472
  0.9090509687189517  0.1717736932484557 -0.0000040320264104
  0.5528944246825548  0.4186069931886448  0.4999999545751277
  0.9156379844409260  0.4463386437649505  0.4999961418550872
  0.7207568060616267  0.1014474427742867  0.4999946536719488
  0.6371321698885162  0.2606703335091536  0.5000376298607361
  0.6026105841364838  0.0934311320679599  0.4999941275104800
  0.7526896527624632  0.2711950470741433  0.4999929234141334
  0.7708245106772399  0.6625214739268243 -0.0000036246397349
  0.8456897958295204  0.5019625834250849  0.9999954623334957
  0.9448769714182117  0.8254659044884576 -0.0000036932103729
  0.8077668197710531  0.9361082224606976  0.4999958540380670
  0.8856386934024295  0.7713181051942871  0.4999962529576014
  0.5305585696831815  0.6495838683645062 -0.0000030730864957
  0.9629255805540177  0.6112148471308848  0.4999963591140940
  0.8952770356044779  0.6643484801928669 -0.0000037220510043
  0.5633318328223467  0.9258092722290732  0.4999961263689789
  0.9328610378633394  0.9316829971794212  0.4999961346483148
  0.6953646911987728  0.8246167196824118 -0.0000038207901952
  0.7172672157644044  0.5963873106644877  0.4999966318929104
  0.6409954146486816  0.7614773577273583  0.4999963357651028
  0.5956434284923277  0.5863034048986223  0.4999965641723684
  0.7622550982053190  0.7693069024251381  0.4999962573191243
  0.5738134889670901  0.8185209947010692 -0.0000035771575587
  0.3287933609522362  0.8040701476835249 -0.0000032336657087
  0.3515644210245525  0.5905992278934461  0.4999967951262255
 -0.0267364138652390  0.4980339204410655 -0.0000036619835689
  0.1560437516015344  0.6448986272687044 -0.0000033715692912
  0.0133349925996380  0.7697765947876344  0.4999964008428428
  0.1941838257467174  0.9084566321134530  0.4999965985013988
  0.7982772398857181  0.3382732690891329 -0.0000057621362618
  0.8420545322388958  0.1045882140069794  0.4999948119989875
  0.4935406595973753 -0.0168240534743605 -0.0000038812938648
  0.5205103422904350  0.2539578081165054  0.4999931022388666
  0.6748172326615599  0.4294703182007644  0.5000045157618715
  0.8190628831614523  0.8290004977383558 -0.0000038672243932
  0.8390305698840874  0.6076149563515245  0.4999959676413329
  0.4901201705124887  0.4854185928360361 -0.0000013988288187
  0.6508801299078201  0.6511382550601627 -0.0000035478387608
  0.5198620322533591  0.7565668111866583  0.4999966946352724
  0.6853972170609245  0.9329366576454033  0.4999957587763185
  0.3245092689891737  0.3103837544467295 -0.0000035070666674
  0.3487141703049725  0.0870624353788971  0.4999964177212706
  0.0033824781196626 -0.0053549296842801 -0.0000036522808831
  0.1609309219808057  0.1566120409480481 -0.0000034180873709
 -0.0014593224200498  0.2692878265382967  0.4999966055649147
  0.1682116746102159  0.4244679898632635  0.4999964492502897
