SCAR file written by OVITO              
   1.0000000000000000     
    24.3378015312485090    0.4526540314620714   -0.0000004631598818
     0.3613478917170613   17.2868475784787670   -0.0000006301643079
     0.0000001493031131    0.0000001620343905    5.1976768068539592
   Mg   Nd
    86     6
Direct
  0.3205210058722279  0.2118137734939795 -0.0000031601816009
  0.4200978432184211  0.0556499411906133 -0.0000031701732146
  0.2817743176705368  0.0387869291118618 -0.0000031821175604
  0.4883272060131979  0.4125241166854775 -0.0000031743731673
  0.2879758093866042  0.4588181112022821  0.4999968564035510
  0.3914588379682378  0.2883744026159645  0.4999968189334115
  0.1526489599111483  0.0165067565834560 -0.0000031844967533
  0.0588640576409390  0.1831401688284523 -0.0000031933049787
  0.4791491453652099  0.1281755015445662  0.4999968432752141
  0.4489308153683785  0.2288045042972754 -0.0000031928141125
  0.0204899176541368  0.4218989049496052  0.4999968095800813
  0.4208392545191361  0.4638422903548552  0.4999968089412115
  0.2204786660777838  0.3758221378957036 -0.0000031838583953
  0.2164811366895801  0.0823171960200608  0.4999968143208475
  0.1254635993233744  0.2560211845555116  0.4999967990954645
  0.0893736028922815  0.0834707456401167  0.4999968383714942
  0.2598284415170546  0.2811429150778592  0.4999968486382217
  0.0874048348085343  0.3538903591961728 -0.0000031775513742
  0.3179290374325165  0.7232795591232608 -0.0000031995126215
  0.4026792901569954  0.5664500702027012  0.9999968259668973
  0.2630445940112687  0.5500570103814665  0.9999968118398467
  0.5008569630655633  0.9090073796524347 -0.0000031852608547
  0.2966354815657896  0.9349088814795435  0.4999968312745824
  0.3804203744140698  0.7846244114304397  0.4999967987172241
  0.1356537440191714  0.5437109684315904 -0.0000031841695928
  0.0542316844071543  0.6904436164660740 -0.0000031801085209
  0.4653460784278677  0.6340984988980157  0.4999968286376902
  0.4501493750978491  0.7384798890445858 -0.0000031742460385
  0.0349699798248568  0.8996966793648058  0.4999968278242242
  0.4305010378194391  0.9544440339868651  0.4999968178030904
  0.2358269593338242  0.8715763080969846 -0.0000031576046073
  0.1990734303767258  0.6073560917335331  0.4999968136082397
  0.1166786991169341  0.7508557333274266  0.4999968079264988
  0.0679419512913208  0.5861584558439052  0.4999968229809367
  0.2485570926679327  0.7683649696100092  0.4999968255561766
  0.1019909912620482  0.8552494173627140 -0.0000031905300918
  0.7963048522083955  0.1434452101588949 -0.0000031837836034
  0.8809462184009195 -0.0050474593532511  0.9999968038862715
  0.7557505561577440 -0.0344003329193398  0.9999968194387396
  0.9612981000490088  0.3522925700385320 -0.0000031743598572
  0.7662614915103920  0.3617303439745799  0.4999968135987580
  0.8547445757514367  0.2139844515391208  0.4999968051316043
  0.6293486431606140 -0.0636299848068955 -0.0000031767979173
  0.5470372552916634  0.0852238773956541 -0.0000032062324324
  0.9388164089512602  0.0672610511087217  0.4999968424648969
  0.9245920499944495  0.1689436126606752 -0.0000031739376802
  0.8944877653006881  0.3904617910719618  0.4999968217266173
  0.7095563041565361  0.2913358183062706 -0.0000031634163571
  0.6845145615485034  0.0068432412105414  0.4999968065848271
  0.5137744204779288  0.3086448306981059  0.4999967939303715
  0.6015917511544562  0.1569204132457047  0.4999968369204437
  0.7266977399371686  0.1867352138508238  0.4999968092588890
  0.5808165547488984  0.2606613064626021 -0.0000031896047139
  0.7964455192126387  0.6434980453735316 -0.0000031823947059
  0.8791938145956163  0.4975147139063640  0.9999968215157129
  0.7504295111008673  0.4669858585342298  0.9999967955045472
  0.9716124417428188  0.8369434591693790 -0.0000031720418616
  0.7714125572292041  0.8617418565844560  0.4999967862496115
  0.8547654743582903  0.7144303452858227  0.4999968310697634
  0.6195245845412892  0.4384946619642989 -0.0000031848145174
  0.5357548480758820  0.5892726385458467 -0.0000032018898084
  0.9359558716984840  0.5656756428714912  0.4999967982935802
  0.9248544536582071  0.6704305582941495 -0.0000032030360047
  0.5584558328467949  0.9784299594925925  0.4999968032395677
  0.9058204817673530  0.8930323933329030  0.4999968168643119
  0.7131240257726512  0.7902927075595597 -0.0000031966453045
  0.6791205407535599  0.5084161552632064  0.4999968236399425
  0.5953490025377105  0.6572383845167308  0.4999968030022356
  0.5506769604598063  0.4837378657055101  0.4999968210577983
  0.7252148089283198  0.6845199411405357  0.4999968104347292
  0.5826474902129751  0.7622814213319598 -0.0000031916688465
  0.3679512903092098  0.8944834927197193 -0.0000031806497253
  0.3344675784325504  0.6181060040529781  0.4999968256710620
  0.0106916487377469  0.5220605992489116 -0.0000031713893728
  0.1871440847960015  0.7098147737408091 -0.0000031751248535
 -0.0161480761190139  0.7317498307302834  0.4999968091797790
  0.1610926729701129  0.9170024512487598  0.4999968069436417
  0.8382565715964512  0.3185483267699548 -0.0000031778572876
  0.8100552782917809  0.0365368664505526  0.4999968222729818
  0.6717940680667988  0.1146489486612492 -0.0000032032809854
  0.6389362760809166  0.3338779253648619  0.4999967913645700
  0.8417479613100737  0.8195427607821801 -0.0000031689395935
  0.8077784704974124  0.5363590854925030  0.4999968013700252
  0.6664208232257685  0.6158073359051732 -0.0000031720141579
  0.5110114941295577  0.8042849055659163  0.4999968198812676
  0.6410427628602300  0.8307278584713073  0.4999968219919599
  0.3497382217751623  0.3856133334281893 -0.0000031786792780
  0.3465086535565665  0.1168278987378888  0.4999968247051862
  0.0149789616920371  0.0160977725735337 -0.0000031681053327
  0.1892487188934914  0.1965762479660242 -0.0000031685143660
 -0.0048326860713776  0.2395553458991004  0.4999968321463379
  0.1577164934878319  0.4288847579947181  0.4999968424470059
