POSCAR file written by OVITO            
   1.00000000000000     
    24.9837635344120237    1.0493390319736979    0.0000001806231085
     0.7438126493695184   17.4885556150195498   -0.0000000368184191
    -0.0000000446941826   -0.0000000162757497    5.1251450590912153
   Mg   Nd
    87     6
Direct
  0.2921589420295341  0.1507166440397038 -0.0000030552868292
  0.3748345377220249 -0.0237535297797824 -0.0000030375138702
  0.2557222490892938 -0.0040305699890278  0.9999969922378397
  0.4662913176059435  0.3399042644678766 -0.0000030157538969
  0.2834195259740351  0.4100865213667675  0.4999969680993916
  0.4358794383124233  0.2414547962977593  0.4999969791202415
  0.1310750543078514 -0.0027107730286094 -0.0000030331943761
  0.0414296601057945  0.1755772949294765 -0.0000030009541964
  0.5042455641857784  0.0870597391305251  0.4999969966211503
  0.4210047291853816  0.1487139187502784 -0.0000030426394431
  0.0213314085033056  0.4229670133440358  0.4999969695663311
  0.4009990287472122  0.4069758043205283  0.4999969794877405
  0.2110527109500966  0.3345833535082689 -0.0000030080444428
  0.2139017886497469  0.0679392579336216  0.4999969677317573
  0.1138239652334366  0.2470392029117690  0.4999969499649141
  0.0788690398740885  0.0803352200772443  0.4999969623206551
  0.2494043093770169  0.2407727218485611  0.4999969671398588
  0.0803975039701893  0.3425217899070447 -0.0000030195642037
  0.3052508759366272  0.6627743871708867 -0.0000030166293252
  0.3812619694474583  0.4986432023149412  0.9999969842166682
  0.2521235538660589  0.4995816649069912  0.9999969832050403
  0.4789492405365424  0.8250808659972991 -0.0000030170040141
  0.3004276238516008  0.9064165324122939  0.4999969850756454
  0.3735442983121914  0.7274272422383304  0.4999969870280698
  0.1300118003038021  0.5222650975560068 -0.0000030158699967
  0.0584547263019923  0.6806021947587566 -0.0000030286177785
  0.4476054750062684  0.5642546420850955  0.4999969850987772
  0.4329198958284686  0.6625621712283043 -0.0000030230211703
  0.0473534803604306  0.9065352436657681  0.4999969691733988
  0.4247599847330309  0.9021311497591145  0.4999969660292778
  0.2288824200470744  0.8340851099763305 -0.0000030343197434
  0.1979869108343371  0.5815482212373582  0.4999969731542719
  0.1219164650733649  0.7402897397148254  0.4999969748066234
  0.0714056056925360  0.5788495149097448  0.4999969701479932
  0.2501981267007076  0.7387547244882771  0.4999969721230030
  0.1036197828005575  0.8381533996658223 -0.0000030374786879
  0.7840710286588393  0.1895264752061512 -0.0000030247569538
  0.8567165537517963  0.0250006071493268  0.9999969713378613
  0.7326354752985598  0.0130727527490587  0.9999969589564053
  0.9574396764174954  0.3636133128133913 -0.0000030183190577
  0.7695167350287510  0.4105255892067327  0.4999969722885648
  0.8457977157648459  0.2480406926781377  0.4999969689980222
  0.6087518466495280  0.0197066387718458 -0.0000032057187226
  0.5377447240664662  0.1777091704565277 -0.0000030050859633
  0.9188828577192962  0.0906936886996788  0.4999969523627470
  0.9118727664173756  0.1890448252169549 -0.0000030080049813
  0.5232737273366825  0.4008050550644393  0.4999969803081056
  0.8955677952754821  0.4145351625499207  0.4999969690221293
  0.7117522820064708  0.3512129975428304 -0.0000030266014620
  0.7151881595115912  0.2488328289524585  0.4999969851712270
  0.5891851975240585  0.3429988554830127 -0.0000030075503013
  0.8099694171696897  0.6818260282451335 -0.0000030365187191
  0.8839611197964243  0.5210889074942635  0.9999969718924149
  0.7601067207355722  0.5169161179786524  0.9999969765387564
  0.9830640442603701  0.8338460738399808 -0.0000030299588054
  0.7951722209091564  0.9118837592284731  0.4999969501178643
  0.8704145592511332  0.7460583414543644  0.4999969563539525
  0.6359230769496261  0.5126853812221684 -0.0000030234209920
  0.5598578641929470  0.6733972582146330 -0.0000030208629513
  0.9434048891570277  0.5790159028640438  0.4999969691744701
  0.9334711753073804  0.6818472330486675 -0.0000030331503136
  0.5479696957265525  0.9074706195002950  0.4999969745666576
  0.9222578404093125  0.9151830390769419  0.4999969634887723
  0.7343866599370986  0.8387715908595259 -0.0000030571611337
  0.6950151104914233  0.5732636210116444  0.4999969591808995
  0.6199196669982854  0.7387599182663021  0.4999969626474130
  0.5711043394876851  0.5694014181460639  0.4999969732152549
  0.7442669277840861  0.7394593779274505  0.4999969498263098
  0.6081108820284432  0.8409498516391187 -0.0000030346080216
  0.3517490384629984  0.8163258454718401 -0.0000030102745199
  0.3233989803492640  0.5693570163050760  0.4999969768964291
  0.0095607044022868  0.5234990975323981 -0.0000030248399038
  0.1827003885852828  0.6804586537278096 -0.0000030220112988
 -0.0035503234656661  0.7365780811453715  0.4999969753332164
  0.1725739035247931  0.9015214934976928  0.4999969732112469
  0.8365284904527029  0.3525998127619765 -0.0000030295601187
  0.7802911928124544  0.0894960370579038  0.4999969518638317
  0.4908326801678012 -0.0054013345203014 -0.0000030120571129
  0.6623396754460046  0.1764777705328286 -0.0000030026919044
  0.5880667001889723  0.2338626375522067  0.4999969910750808
  0.6452035029113055  0.4071501612766234  0.4999969724426910
  0.8604576274247185  0.8478196356871102 -0.0000030422282883
  0.8195461757659853  0.5765157634154159  0.4999969568586361
  0.5108448352515679  0.5056479852482594 -0.0000030197280570
  0.6845144798327397  0.6781905080138942 -0.0000030339209073
  0.4959124824663826  0.7297551957140818  0.4999969722709044
  0.6712939677672326  0.9170372522907900  0.4999969157925589
  0.3386933312744111  0.3109832121254693 -0.0000030044760236
  0.3538277952516927  0.0867676354694909  0.4999970368391266
 -0.0070737266568128  0.0152647312521371 -0.0000030140732218
  0.1664597528524042  0.1703924674156352 -0.0000029779738225
 -0.0137075932757808  0.2481839774920960  0.4999969265168699
  0.1568126237315472  0.4093332858538669  0.4999969555483647
