POSCAR file written by OVITO            
   1.0000000000000000     
    25.4426437025061709    1.6943593415387910    0.0000009961294410
     1.2410098128231903   17.2063688920127724    0.0000018620105815
    -0.0000002236701451   -0.0000003036573375    5.1773269900591226
   Mg   Nd
    88     6
Direct
  0.2847479453577993  0.1364362744294184 -0.0000027671852291
  0.3754877622336331 -0.0374903081375794 -0.0000029094301083
  0.2561243024284879 -0.0287675361903276 -0.0000031044714548
  0.4523399031492052  0.3106674806394510 -0.0000029615382029
  0.2997437172895168  0.4235391080589890  0.4999969514046618
  0.3970808322792552  0.2475210512376649  0.4999970307985154
  0.1360301224932828 -0.0293825864892071 -0.0000032516559445
  0.0351311772436190  0.1692462254583836 -0.0000032011845719
  0.4814457512982280  0.0902089389041710  0.4999970332382169
  0.4129146973153001  0.1433144231522371 -0.0000028123263932
  0.0320968978737801  0.4393864312589345  0.4999967981520590
  0.4275474357774089  0.4158248853185857  0.4999970031967524
  0.1933830877605432  0.3211453830081425 -0.0000029173651460
  0.2191413663868808  0.0649050862185490  0.4999967779209348
  0.1162445911230389  0.2557272494719780  0.4999967211508340
  0.0880537351545787  0.0827966744529511  0.4999967502423006
  0.2469329428387464  0.2400879093295391  0.4999968564576627
  0.0683797173202809  0.3353116455768654 -0.0000031980546228
  0.2850401194120788  0.6383910540129416 -0.0000030976837755
  0.3637434062998204  0.4771399640274271 -0.0000030036922302
  0.2369860263436493  0.4804460903263012 -0.0000030675202356
  0.4541761198559116  0.8058535557400942 -0.0000029840003735
  0.3197349240438721  0.9018721157846764  0.4999969253254154
  0.4003642116335750  0.7454269987825465  0.4999969573406681
  0.0977960406824870  0.4989463795929651 -0.0000030625794836
  0.0260326120787740  0.6637536387071599 -0.0000031813792232
  0.4771343511929072  0.5853609980363436  0.4999970110683144
  0.4098762706227473  0.6381968560940420 -0.0000030201447915
  0.0737973889549220  0.9123790780863127  0.4999970875265592
  0.4415214505887640  0.9155016386297173  0.4999969947871439
  0.2092813770839886  0.7990767465856493 -0.0000032162324402
  0.2241698398374928  0.5871233831371043  0.4999968465539731
  0.1478932151103401  0.7485696624141072  0.4999967949778045
  0.0891722327077517  0.5989093675140894  0.4999968772798180
  0.2755877763052488  0.7419337020917522  0.4999968729138355
  0.0836330395214372  0.8134322098623150 -0.0000033277956345
  0.7839619980007678  0.1738839149903863 -0.0000029795672529
  0.8737296943196834  0.0075755777711607  0.9999969375175423
  0.7454262520095112  0.0016822359666297  0.9999969952331867
  0.9410337392616908  0.3588022898199045 -0.0000032420609107
  0.7683712296928495  0.2841803067237984  0.4999971793621265
  0.6189661911218131 -0.0080442770773633 -0.0000029832336254
  0.5375682470956693  0.1517648139134250 -0.0000029704907046
  0.9637011575310255  0.0877154229397844  0.4999971778931242
  0.9123721887254352  0.1790406385627946 -0.0000032078971244
  0.5580723541841806  0.4273603233131790  0.4999970464705244
  0.9061728358178057  0.4445088775938620  0.4999968566131707
  0.7000969236408309  0.3317750448763934 -0.0000028870884693
  0.7292073591229924  0.1107158113896225  0.4999969900773970
  0.6442719062213685  0.2705070760574879  0.4999970757690748
  0.6051418085134678  0.0996550279263151  0.4999970115778930
  0.5755361687333520  0.3209183670845495 -0.0000029372925388
  0.7756038582231126  0.6714328988612319 -0.0000030450832642
  0.8532535570984962  0.5135990213299101 -0.0000032396715818
  0.7372884525539601  0.4985200821985044 -0.0000028420587544
  0.9496804217989014  0.8294439327552500 -0.0000032322470003
  0.8118980777443520  0.9492296650868141  0.4999969561053947
  0.8884654422743715  0.7772371564077825  0.4999969155503399
  0.6142078585683188  0.4890704981669488 -0.0000029270634966
  0.5323180879225851  0.6477966590643557 -0.0000029471125259
  0.9640999390784982  0.6140934119898281  0.4999968567255657
  0.8985964709190527  0.6756302894777806 -0.0000031073866351
  0.5654517479779038  0.9290905872463527  0.4999969556583587
  0.9368334301149374  0.9290750808441622  0.4999969207505868
  0.6982864998281229  0.8320238340086141 -0.0000029804250027
  0.7233816893282621  0.6067299075323196  0.4999970686007171
  0.6445064017241675  0.7688343513084481  0.4999970193955696
  0.6010393465700740  0.5965570875112991  0.4999970375769654
  0.7662113056798374  0.7786299066412543  0.4999969366887784
  0.5751098585868103  0.8212466695021698 -0.0000029801826082
  0.3309738871936968  0.7976905456321460 -0.0000030885902682
  0.3534037060133029  0.5842258865516378  0.4999969637213488
 -0.0257752044161220  0.5141270413118092 -0.0000032342070377
  0.1566794988632791  0.6407751889898549 -0.0000032156812401
  0.0165885049591713  0.7693437328645663  0.4999968254341565
  0.1979341190887860  0.8998504781309303  0.4999967954228108
  0.8251874001249246  0.3412505979798602 -0.0000026116423661
  0.8491887889511650  0.1300357061202368  0.4999969937639328
  0.4937197364325891 -0.0171518621031558 -0.0000029784374564
  0.6603848414065800  0.1613519300013956 -0.0000029509055983
  0.5217435067835570  0.2597772240703844  0.4999970114155041
  0.6843563019478958  0.4387828247732885  0.4999971260457399
  0.8233389454454852  0.8404337090501369 -0.0000030347974338
  0.8431298934891996  0.6155204350476891  0.4999968863113535
  0.4897383883280416  0.4786929610300483 -0.0000029879554693
  0.6544835398661392  0.6600421928862189 -0.0000029323550551
  0.5226366222643084  0.7572516994574693  0.4999970327282732
  0.6887502746251465  0.9407064642064901  0.4999969988777631
  0.3200766964392061  0.3041426563207686 -0.0000030336920266
  0.3475515487353696  0.0812909576908538  0.4999966287932996
  0.0084988211974964 -0.0051904068718194 -0.0000038392578418
  0.1609609678455189  0.1549180866922783 -0.0000030554867493
 -0.0149650648751293  0.2606219504639957  0.4999967134136080
  0.1660773757067775  0.4196765727937116  0.4999966722802259
