POSCAR file written by OVITO            
   1.0000000000000000     
    25.3607499437861996    0.6566003314361877   -0.0000002050697522
     0.4986171545174280   17.1891656027712294    0.0000021515350147
     0.0000000723775973    0.0000011841948040    5.1468741844240835
   Mg   Nd
    88     6
Direct
  0.3002899721614558  0.1516386373354249 -0.0000031115845856
  0.3796901885748339 -0.0123938057241749 -0.0000030897766939
  0.2558795754227542 -0.0146892997954532  0.9999968517941661
  0.5042288838931046  0.3243523196874065 -0.0000030734912980
  0.2820842731928422  0.4340059046487504  0.4999969789191503
  0.4452693858678283  0.2696312092413949  0.4999969910259479
  0.1305006384542277 -0.0206830827449199 -0.0000031151070939
  0.0514793920235741  0.1731038980747388 -0.0000031251657948
  0.5063200227006941  0.1014151661075978  0.4999970038545731
  0.4429399138555346  0.1630714813320913 -0.0000030573721272
  0.0244163343874207  0.4317370288933232  0.4999969226070431
  0.3988369725663937  0.4402167405444380  0.4999969857643536
  0.2216643173734585  0.3355619870498780 -0.0000030077500814
  0.2362448853154762  0.0804380606199633  0.4999970288649351
  0.1225114824907422  0.2430773810825041  0.4999969150873284
  0.0929018882372673  0.0785723231900480  0.4999969048029825
  0.2603587874856060  0.2531435699395083  0.4999970062132728
  0.0981692019221369  0.3287699945295254 -0.0000029609619364
  0.2684813669726352  0.6643981266609317 -0.0000030102733668
  0.3369757054204093  0.5092256653811912  0.9999969544593796
  0.2149589052572889  0.5056222654022989 -0.0000029959212672
  0.4498168827677876  0.8254761615618499 -0.0000030271233599
  0.3199904125494430  0.9307748833213048  0.4999969424380131
  0.3892897060446834  0.7703882441289164  0.4999969332588799
  0.0784858743818356  0.4994338734455273 -0.0000030104782166
  0.0133076786363460  0.6577285111393038 -0.0000030977040197
  0.4563857417397438  0.6019291383880773  0.4999969459650843
  0.3942086515178861  0.6643832632533340 -0.0000030546445284
  0.0663096067723759  0.9138202497036102  0.4999969464834549
  0.4442046663696558  0.9353114622059922  0.4999969600196265
  0.1983311513679122  0.8168518507336833 -0.0000030757002867
  0.2091103887330725  0.6016854677571423  0.4999969354088376
  0.1380381736552181  0.7601424497703479  0.4999969497994957
  0.0795647778940669  0.5959558252384198  0.4999969735784373
  0.2643107194842348  0.7675379681277662  0.4999969057988634
  0.0724268408548725  0.8191291122617882 -0.0000031525367226
  0.8117630588693718  0.1452484269891047 -0.0000030709984293
  0.8755704731614656 -0.0209572288744994  0.9999969231068564
  0.7534326705773031 -0.0207550256947349  0.9999969633390841
  0.9839002684709631  0.3499934015492296 -0.0000030390692273
  0.7741638013196852  0.4170161293778593  0.4999969021494625
  0.8379954438948769  0.2442996422521087  0.4999969083487619
  0.6295653894301764 -0.0142258654873609 -0.0000030534466397
  0.5690263374502412  0.1546787805289324 -0.0000030451843906
  0.9004473154497172  0.0810938272550005  0.4999968812376788
  0.9270439787283301  0.1664824261069364 -0.0000030984509057
  0.5206589563574763  0.4305488532329387  0.4999969442488765
  0.9029682007389891  0.4174909155052620  0.4999969405570098
  0.7557203646390809  0.3132239508480888 -0.0000030904884078
  0.7027674449626131  0.2526440353254599  0.4999969015063152
  0.6329847372754858  0.0922446561746675  0.4999969686462330
  0.6335111613143981  0.3181444619685033 -0.0000030931264045
  0.7630070521741561  0.6502216771492257 -0.0000030528505532
  0.8263445153857313  0.4889415777885755  0.9999969333769643
  0.7032893904781203  0.4835778684110335  0.9999969218860256
  0.9467329175200767  0.8199018396123470 -0.0000031106891208
  0.8177132893201405  0.9210418447466109  0.4999969277662553
  0.8846097436154965  0.7604695529101027  0.4999969826096715
  0.5793897881856894  0.4880247685926412 -0.0000030905524206
  0.5174637084835577  0.6581037638223103 -0.0000030789497590
  0.9542188206053736  0.6020139462306922  0.4999970358624382
  0.8856903313674963  0.6611449395329178 -0.0000030907589184
  0.5696497770918837  0.9301879773683427  0.4999969984211506
  0.9429351442292032  0.9158166433720663  0.4999969416283356
  0.6960324893261091  0.8165522010017674 -0.0000030667349755
  0.7059601906194749  0.5892664744934500  0.4999968946809475
  0.6360372470667706  0.7599689083800634  0.4999969480325532
  0.5806194622377464  0.5955973720970958  0.4999968943348142
  0.7602210739080757  0.7561732831744952  0.4999969431660862
  0.5729639791079616  0.8221283767381091 -0.0000030388017589
  0.3233876577484001  0.8230154079536914 -0.0000030460068636
  0.3331624246652282  0.6099736775786847  0.4999969761570391
 -0.0530853116914299  0.5092192049607231 -0.0000030582579280
  0.1400048442466711  0.6543294987561387 -0.0000030594577648
  0.0117547675547653  0.7588918120334752  0.4999970315942509
  0.1918312257740054  0.9220789412884292  0.4999969200961571
  0.8724950558633492  0.3235005046644749 -0.0000030924907772
  0.7606068477557907  0.0848786119843447  0.4999968770231261
  0.5031416619685776 -0.0053615114892776 -0.0000030241658208
  0.6913282390636952  0.1473144144183727 -0.0000030637272925
  0.5746686525128821  0.2616741806718705  0.4999969491135768
  0.6463325735576720  0.4243566883589207  0.4999968943153213
  0.8194737699050705  0.8169811574063642 -0.0000030739678900
  0.8319847516061114  0.5906420015240310  0.4999969165460840
  0.4564451355702581  0.4940997575760948 -0.0000030825390079
  0.6407782678725553  0.6517167927870254 -0.0000030456184043
  0.5121354873350432  0.7659040604981185  0.4999969520114129
  0.6938250304212158  0.9238161758656896  0.4999969335258736
  0.3554994876898777  0.3189697358891411 -0.0000030561091020
  0.3697368914487125  0.1131619631864922  0.4999970993206638
  0.0020268108285552  0.0081087741475176 -0.0000030068958908
  0.1761031754917008  0.1614598799161906 -0.0000031329300347
 -0.0140056309079526  0.2388798824924955  0.4999969167515436
  0.1546925970111372  0.4197317445581649  0.4999968813555758
