POSCAR file written by OVITO            
   1.00000000000000     
    25.5129213294859021    1.6405815052819375    0.0000005495874329
     1.1581148811616893   17.1545616271119847   -0.0000006595071222
    -0.0000004863871828    0.0000001408007020    5.1677417580994849
   Mg   Nd
    86     6
Direct
  0.2869276466776520  0.1426888062752017 -0.0000031363912283
  0.3746844849218667 -0.0316004101866773 -0.0000031797734011
  0.2546252100907784 -0.0233483949334876  0.9999967212022783
  0.4582263747600434  0.3205359455539663 -0.0000031700372928
  0.2987644213838738  0.4303526851862582  0.4999967988479977
  0.3976741907437784  0.2525714531912073  0.4999967919977581
  0.1329092437687862 -0.0271916376918468 -0.0000033105005163
  0.0363925016303880  0.1660895525158412 -0.0000034107833735
  0.4827490850849572  0.0899543686259240  0.4999968589120004
  0.4172984922741614  0.1502051111125611 -0.0000031627757211
  0.0378165306606043  0.4466899335238419  0.4999966774067226
  0.4243397828844999  0.4209086059739471  0.4999968252312069
  0.1970589449499318  0.3240267180684612 -0.0000030609325954
  0.2224565503559736  0.0709768024404120  0.4999966856983468
  0.1235586664639001  0.2567999486736151  0.4999966478832277
  0.0902714214077968  0.0831438181699649  0.4999966340668565
  0.2513734587456594  0.2462440681555422  0.4999967413234396
  0.0714909384977928  0.3361142757658683 -0.0000033573460911
  0.2830662265744847  0.6461688520719663 -0.0000032456002689
  0.3628721218576992  0.4866193136188622  0.9999967991145832
  0.2370721307577995  0.4863099111508238 -0.0000031544026945
  0.4526307964695270  0.8112878786514204 -0.0000031612960934
  0.3175622178393352  0.9099042501650121  0.4999967427752749
  0.3972547799140558  0.7528584804429048  0.4999968198836710
  0.0985377519773556  0.5012614544419888 -0.0000031822680013
  0.0221430608708091  0.6580896779533206 -0.0000033012245788
  0.4728379924478421  0.5894810003247469  0.4999968509466039
  0.4075326850298266  0.6468364067279901 -0.0000031741774764
  0.0709842272459414  0.9129119150223518  0.4999967274715545
  0.4399624660500110  0.9198196510853617  0.4999968128380638
  0.2065981801038225  0.8049048914678659 -0.0000032804088965
  0.2228911251889805  0.5930513951012382  0.4999967579531213
  0.1463992062647050  0.7535787248482021  0.4999966874246787
  0.0896910269462370  0.6034193000888844  0.4999967317793356
  0.2728834012234803  0.7499611188964566  0.4999967362644289
  0.0804102036131360  0.8120974448359786 -0.0000033024157797
  0.7866321943389923  0.1623135256604107 -0.0000032906139451
  0.8708489903722288 -0.0063964078171451  0.9999967264644224
  0.7446447820603788 -0.0081168880096372  0.9999968794044430
  0.9245456812546872  0.3442886237126901 -0.0000034208700079
  0.7919019242199169  0.4406499937760729  0.4999964735164083
  0.8675298990890182  0.2762699200544720  0.4999965593701211
  0.6192224047975103 -0.0105931994165976 -0.0000030841883155
  0.5428303230413850  0.1564725400778303 -0.0000030920802283
  0.9652464133566830  0.0946059164280974  0.4999966902226964
  0.9126838728037535  0.1694177685480567 -0.0000033663256155
  0.5503269926206149  0.4214494306952340  0.4999969588733018
  0.9144920218269477  0.4450133206025734  0.4999966130488798
  0.7263802925666366  0.0975866028215247  0.4999969372072711
  0.6333711016797726  0.2667345861747857  0.4999971650436011
  0.6046086558975722  0.0960162087397073  0.4999969505468254
  0.7494134861745616  0.2696252224902448  0.4999965100894773
  0.7705021935107230  0.6612591929736673 -0.0000032165933367
  0.8451761324105129  0.5013246158878875  0.9999965985277416
  0.9456433916684851  0.8233652365926691 -0.0000032996302969
  0.8087563147732807  0.9335944093376173  0.4999968086502546
  0.8857785621617859  0.7696705470028691  0.4999967401299229
  0.5297647305197738  0.6519381750639943 -0.0000031559049040
  0.9627154837531297  0.6096802879526889  0.4999966770853067
  0.8953519653496569  0.6629302491256387 -0.0000033038611259
  0.5637733866192595  0.9274274014295253  0.4999968861238311
  0.9341528104600165  0.9290915139806077  0.4999966960328769
  0.6955499307071908  0.8239605689730133 -0.0000031458817426
  0.7162944597500849  0.5966173795133738  0.4999967993499163
  0.6404362538622344  0.7619762301244957  0.4999968356177640
  0.5944721055297668  0.5878643010890189  0.4999968055728296
  0.7619713047190392  0.7680609358341535  0.4999968151542468
  0.5738749715046823  0.8202282053502874 -0.0000031206482903
  0.3285807038914013  0.8052672154342384 -0.0000032289562613
  0.3505128088783712  0.5922045259152849  0.4999967642390159
 -0.0272765408386615  0.4972335758081602 -0.0000033537369211
  0.1554347566586994  0.6451522216389117 -0.0000032880531057
  0.0138469595553912  0.7681476730259299  0.4999967079575173
  0.1948288948108617  0.9081509866364746  0.4999967031604423
  0.7951506307167985  0.3405046356925136 -0.0000035700672879
  0.8473563236370617  0.0994937828353670  0.4999967141770044
  0.4939302137960245 -0.0147815790196370 -0.0000031549853214
  0.6650245328405533  0.1594323227319765 -0.0000029521913876
  0.5179859163148233  0.2564686521891901  0.4999968528673249
  0.6732386247173759  0.4308787930148187  0.4999994936270500
  0.8193541350849601  0.8267979910856597 -0.0000032197121507
  0.8385201981131265  0.6066418491812540  0.4999966973728161
  0.4886188185777730  0.4884651320786515 -0.0000030947618236
  0.6501857633694361  0.6523086890561921 -0.0000032038949213
  0.5194460051363563  0.7584458473865968  0.4999968495598729
  0.6858795942143526  0.9321083703760643  0.4999968881761911
  0.3239515592428142  0.3121778832247999 -0.0000031965547977
  0.3501951013757487  0.0879047786487706  0.4999966693384640
  0.0047195547928732 -0.0072597287973087 -0.0000033534014330
  0.1625454767700199  0.1568406679953199 -0.0000032751274244
 -0.0034957769737125  0.2674016093347195  0.4999966007706055
  0.1673366142397248  0.4231827984402985  0.4999965170749537
