POSCAR file written by OVITO            
   1.00000000000000     
    25.0114380861647270    0.2256068550463952    0.0000022074515433
     0.1595155666015921   17.5895195671642739   -0.0000020058822268
     0.0000004478458664   -0.0000005131242490    5.0835814620616340
   Mg   Nd
    86     6
Direct
  0.3007771892098400  0.1724872699654230 -0.0000032963046266
  0.4173045642780680  0.0135047710402093  0.9999967861792697
  0.2727199577432157  0.0049574847921881  0.9999968070093245
  0.4625692307663918  0.3570741719362547 -0.0000031917293489
  0.2847140143207165  0.4310501341538192  0.4999967707241776
  0.3835805597194252  0.2595733277564978  0.4999967962438023
  0.1420290067544185 -0.0142269928617312 -0.0000032233992451
  0.0480197641499212  0.1584138819404764 -0.0000031173168748
  0.4759163405204658  0.0868422834133053  0.4999967645297596
  0.4240684631662573  0.1840251038530122 -0.0000032084544954
  0.0250347058437628  0.4119874432877888  0.4999967800131268
  0.4067699998886439  0.4275770728542190  0.4999968016281037
  0.2074457694334594  0.3344437302583884 -0.0000035061085208
  0.2136373753418115  0.0566480085795675  0.4999967621153066
  0.1230206370135988  0.2390304467036000  0.4999966504459041
  0.0871290541575952  0.0667903421689287  0.4999967976333179
  0.2518450709692838  0.2490007405870411  0.4999967698349689
  0.0798191095781576  0.3306256344145855 -0.0000032955733547
  0.3024122837661534  0.6865388568322364 -0.0000031995211309
  0.3828361218625530  0.5209938002640356  0.9999968000512689
  0.2485908580950520  0.5102568485445587  0.9999967497048613
  0.4800330170783196  0.8557476045074945 -0.0000031830435955
  0.2900785438262451  0.9072840080789165  0.4999968030499458
  0.3679946966018020  0.7543938421855438  0.4999968135659134
  0.1246868536016567  0.5137354018426626 -0.0000034488923347
  0.0486856644127978  0.6650198200835716 -0.0000032450095418
  0.4567100635893783  0.5896860632270343  0.4999967731381816
  0.4269714814704634  0.6885821109432795 -0.0000031946116352
  0.0419921910426025  0.8873978754866774  0.4999968137330148
  0.4181971436571112  0.9168572466585032  0.4999968170692157
  0.2272162021576279  0.8412083122569415 -0.0000031853516720
  0.1958670235487691  0.5831039874517950  0.4999967808271764
  0.1165245170035883  0.7295792469258836  0.4999967789962028
  0.0707416125597074  0.5684525607440368  0.4999967765618751
  0.2425732217761588  0.7423325511507755  0.4999967992898501
  0.0946375240025202  0.8276172029397065 -0.0000032197900643
  0.7897378323927545  0.1585384378487248 -0.0000032198667370
  0.8724031829169957 -0.0121500015256905  0.9999968083278760
  0.7411500635633547 -0.0064445000936968  0.9999967941265318
  0.9530942363073520  0.3376477486240232 -0.0000031957587210
  0.7777707571307046  0.4233479485586710  0.4999967490318321
  0.8669700531533046  0.2324305279906529  0.4999968295051093
  0.5464992779456531  0.1673851176368314 -0.0000032604948536
  0.9501566475238108  0.0694293463089986  0.4999967967522055
  0.9189174711920949  0.1580644835145205 -0.0000031697977518
  0.5307749846008000  0.4281723458447717  0.4999967827747475
  0.9014255731044811  0.3992313278699219  0.4999967837858995
  0.7060470419761380  0.3454265610137902 -0.0000031716676321
  0.7146144683905973  0.0916994286123755  0.4999968023016577
  0.6262307496482413  0.2547161523407060  0.4999968008555856
  0.5968551287363629  0.0822783188435008  0.4999967517707626
  0.7477052336657306  0.2567815622655070  0.4999968366883289
  0.5843957548313434  0.3490084578394079 -0.0000031895561045
  0.7867134155673440  0.6488525741439117 -0.0000031900578035
  0.8692155879075512  0.4926441963333870  0.9999968059997938
  0.9648852519712856  0.8168084104269027 -0.0000032096662167
  0.7929564091913425  0.9036113091235782  0.4999967847867600
  0.8746564329319856  0.7402647825247909  0.4999968144505247
  0.5500875918690130  0.6999955783338175 -0.0000031894259135
  0.9488512726132307  0.5627286425316602  0.4999967846635661
  0.9161880637115235  0.6561220705606691 -0.0000031983806317
  0.5412230249640210  0.9267517757277276  0.4999968070479694
  0.9199275133067327  0.9040890260982580  0.4999967844534599
  0.7148522905786010  0.8226720282948948 -0.0000031785263329
  0.7114930139057307  0.5756578391753544  0.4999968448886658
  0.6243297760928435  0.7623559758994743  0.4999967991091562
  0.5859634269099703  0.5926404975417323  0.4999967686404942
  0.7504018181981258  0.7381215802306995  0.4999968075684432
  0.6021426858493315  0.8759602152731704 -0.0000031551963788
  0.3538104394076795  0.8591372187238138 -0.0000031797211453
  0.3272484161426993  0.5911908915563624  0.4999968196448689
  0.0009882936909289  0.5038808541528995 -0.0000032177370918
  0.1776199921113036  0.6806604792379223 -0.0000032196022878
 -0.0058365331538268  0.7230586443692136  0.4999967838266348
  0.1634640304062037  0.8907659842230652  0.4999968017181985
  0.8284068668076972  0.3259244860648431 -0.0000032282887545
  0.8308697012380142  0.0678362787286797  0.4999967635887258
  0.6668719655438741  0.1652780315523337 -0.0000032169422922
  0.5047424082981300  0.2578542266567512  0.4999967708829908
  0.6524992157265119  0.4267855333467460  0.4999967985655731
  0.8373031689276708  0.8181438162016308 -0.0000032114176645
  0.8324610824966177  0.5792896852673388  0.4999968140928005
  0.5185090940571190  0.5256755249790797 -0.0000032262341073
  0.6647610537297061  0.6578753876927419 -0.0000031855629912
  0.4941520270405020  0.7583676507147222  0.4999968232370581
  0.6703615270054175  0.9262255210560648  0.4999967966967547
  0.3310078043482020  0.3423310373208861 -0.0000032078689008
  0.3445392497011681  0.0857324852411743  0.4999968099064601
  0.0065718775621804 -0.0071828149385830 -0.0000032085214966
  0.1741552322168893  0.1626962649717546 -0.0000031695463023
 -0.0020255415202082  0.2356032476542759  0.4999967478698280
  0.1588812256595764  0.4072445685460576  0.4999971100406211
