POSCAR file written by OVITO            
   1.00000000000000     
    25.2424164962700566    0.8780847380905081   -0.0046549978302044
     0.6271299511099223   17.1811630510375259    0.0004963226033768
    -0.0023401972310722    0.0024923639583687    5.1264947087172130
   Mg   Nd
    85     6
Direct
  0.2947068757516956  0.1545925471942363 -0.0061242591778973
  0.3804382010011317 -0.0125243425041118 -0.0057564201255485
  0.2582202412973136 -0.0121049168523224 -0.0062655387260644
  0.4934031822060382  0.3263451518205756 -0.0056236866055255
  0.2910242551915385  0.4356243203668351  0.4941317136366610
  0.4386767295770262  0.2636196744782843  0.4944188873228129
  0.1361803915803536 -0.0222934657228342 -0.0066069705992587
  0.0420754327158351  0.1681119079912995 -0.0073148864949289
  0.5000314116670205  0.1005425765853242  0.4946455757271318
  0.4347085375497022  0.1616287433822096 -0.0056248652185947
  0.0338731512199298  0.4442089296821560  0.4928891554612100
  0.4106328491127613  0.4366709837199119  0.4945129681096364
  0.2122701813746966  0.3327560609632311 -0.0062504106012396
  0.2307257121526338  0.0807280454079237  0.4935859351615745
  0.1169237302636475  0.2521862300734067  0.4930161559385058
  0.1015083253789219  0.0781847980573990  0.4930704252256872
  0.2559245346562868  0.2549236700267139  0.4938727402796170
  0.0765586807209392  0.3359312646872640 -0.0071070926181087
  0.2774417497517434  0.6617371503897919 -0.0059494821137756
  0.3526276417386514  0.5091884221795961 -0.0056139570055564
  0.2300194703482762  0.5003610726533725 -0.0062649596531266
  0.4536917357722556  0.8275014274897927 -0.0057390337639788
  0.3211185192054734  0.9285774960829248  0.4940191661412959
  0.3944362693445706  0.7700146883967300  0.4940703237120349
  0.0963819717782973  0.5024372946427993 -0.0067286877995141
  0.0184760966173817  0.6481269227173867 -0.0065139082563967
  0.4640535626176971  0.6019463880161779  0.4936147533226882
  0.4026447539248438  0.6653415138003880 -0.0060301863131646
  0.0719700139380444  0.9116387399071367  0.4934927946017061
  0.4439791749545084  0.9363074955115701  0.4943099843127910
  0.2049445456438695  0.8150601320265560 -0.0062913533437940
  0.2172993292668549  0.5989400703907048  0.4937831267069628
  0.1451864185378998  0.7577599456608957  0.4935985642138827
  0.0878785079474792  0.6009214565880840  0.4933334112441338
  0.2704966420826221  0.7636643328978422  0.4938947233814184
  0.0788934730533101  0.8125492333140993 -0.0064654184570269
  0.7996195312276363  0.1588366431674608 -0.0086945995697137
  0.8760970834962420 -0.0219440443914690  0.9926227081866448
  0.7531810170183757 -0.0168085998368584  0.9928300359901703
  0.8910863683033088  0.3291350650398675 -0.0081806959311975
  0.7752017012286208  0.4253448005858940  0.4909347246332984
  0.8431925984168126  0.2580291768292333  0.4926692645355298
  0.6298392830791603 -0.0089726502548235 -0.0059593484816292
  0.9816226428206430  0.0881786335181091  0.4929104277859360
  0.9215324194329250  0.1569166936458881 -0.0077678984495408
  0.5317628475974946  0.4292367101469785  0.4908373016892643
  0.8997636429038071  0.4332641519728898  0.4921781664750290
  0.7466083766939200  0.0846080657964868  0.4923461029973707
  0.5823196734024061  0.2652803022617601  0.4967151540293387
  0.6252156814879407  0.0948516944409847  0.4938736618501900
  0.7135087008502004  0.2584874430708458  0.4912617009222654
  0.7668369012922439  0.6528502752776189 -0.0061205530277292
  0.8287358165701236  0.4899785126409973 -0.0075076693575535
  0.9487554137223804  0.8123718809143341 -0.0066487630146881
  0.8143639523655141  0.9187659211188874  0.4928498975847346
  0.8869341119431186  0.7552700352811855  0.4931887585524797
  0.5255365553720311  0.6640203866312063 -0.0053381383929550
  0.9582002790560563  0.5948388567207662  0.4933673639571859
  0.8928250467128649  0.6463281265513247 -0.0067084267235197
  0.5689149030836869  0.9326114387019300  0.4943408471244418
  0.9400228547689387  0.9173079280660219  0.4931448346924120
  0.6990236997259974  0.8187386106962794 -0.0061355471987951
  0.7085289153955652  0.5859850085078896  0.4947025907910234
  0.6381178698145926  0.7585188902531406  0.4941354231018366
  0.5862481395575395  0.5888107029317284  0.4948622958491600
  0.7610872429009432  0.7568641985708159  0.4937389916018849
  0.5772101633333141  0.8257594017194014 -0.0056490378862174
  0.3279998267484024  0.8221777127955424 -0.0059999599612947
  0.3419247407068197  0.6082030849962453  0.4941877617723794
 -0.0346531605741735  0.4686586205662754 -0.0072325918253506
  0.1507392996470384  0.6537953609177422 -0.0064011108044041
  0.0145789981566561  0.7587101119624299  0.4934502714798062
  0.1970747151998847  0.9171363753132834  0.4936158567193213
  0.7546649147133294  0.3345466687898636 -0.0107455825524875
  0.8665095469806474  0.0801495974621647  0.4920954206159990
  0.5034927259581709 -0.0050452270158829 -0.0054984628469764
  0.6787401301071280  0.1672335646151887 -0.0076389721544041
  0.5591449425033322  0.1582397305171564 -0.0049111944212243
  0.6532597435106586  0.4225513617651013  0.5875496274893943
  0.8228587142090277  0.8138534041896995 -0.0068201042409441
  0.8315065052766554  0.5941745873574363  0.4931761772355972
  0.4768960260583610  0.5021026372356177 -0.0070048133101271
  0.6462097215037709  0.6512184113136441 -0.0058157635960767
  0.5161303500919064  0.7684547572029597  0.4944686523215441
  0.6913807965025468  0.9246006452193336  0.4937097990006932
  0.3466383777215666  0.3206726433250521 -0.0056751141846039
  0.3621597157541455  0.1107783485253346  0.4941351440699503
  0.0078214606625331 -0.0106277262624794 -0.0067540084012874
  0.1696344600880715  0.1661313831742799 -0.0067008808693216
 -0.0168430337907465  0.2725499709758283  0.4921973950964019
  0.1620655457485696  0.4196151384581034  0.4935282464244030
