POSCAR file written by OVITO            
   1.00000000000000     
    24.6485820403616778   -1.7657423149690075   -0.0484816507423512
    -1.2472387788903714   18.2448685218098596    0.0585450090403532
    -0.0097256229396813    0.0182528343709116    4.9663741827054473
   Mg   Nd
    87     6
Direct
  0.2966371657893120  0.1871286360731265 -0.0031556707405974
  0.3817882863798525  0.0193868568109892 -0.0010272960174125
  0.2560648051199714  0.0159192293770445 -0.0002495789458071
  0.4920704736313937  0.3464443430981713  0.0599811034643135
  0.3087827533161880  0.4480606788631261  0.5085539381832992
  0.4222048363668468  0.2787201260821037  0.5181371696328719
  0.1291124494832095 -0.0072690973414062 -0.0060254481519917
  0.0405477749386388  0.1601132481795158 -0.0062657181683799
  0.4727342421426809  0.1234756230457622  0.4731449223291914
  0.4238857232854008  0.1879422011388563 -0.0008394920833565
  0.0395748919539333  0.4161420604060653  0.4946951299421246
  0.4343933966180130  0.4471067752820783  0.5147906546666033
  0.2222579576529180  0.3422910860924187 -0.0006653131558240
  0.2085755759019620  0.0798999187966069  0.4981135876768714
  0.1259192231383975  0.2501305722459735  0.4943900976939010
  0.0811535964894825  0.0785846352751943  0.4934590705252463
  0.2610842491270955  0.2655387107064129  0.4996945149432582
  0.0845938972321718  0.3314711669928689 -0.0054570743903692
  0.2935226146638698  0.6864197466703105  0.0020765215345174
  0.3825873046371915  0.5384624103266379  0.0081660042096562
  0.2551020587811761  0.5137478319870881  0.0030427139100995
  0.4646082802826034  0.8773454873270280 -0.0048462849912808
  0.2966700591742505  0.9335200667013220  0.5006124522221055
  0.3804499177379682  0.7859738463903030  0.5036714564828357
  0.1250718699904046  0.5065210987857329 -0.0040492957390776
  0.0415261581840968  0.6579162584704012 -0.0062241658509767
  0.4628526904555515  0.6186030479829394  0.5061025039809698
  0.4217241405703588  0.7082211910579120  0.0044436399896235
  0.0440064967384830  0.9020437106487886  0.4930302925699522
  0.4226357815857246  0.9556669818330973  0.4986014196991113
  0.2111939883477705  0.8428055872847325 -0.0025387626445860
  0.2123754727357036  0.5970541124289680  0.5009026845337471
  0.1235606613246223  0.7490716502434008  0.4968913944220108
  0.0852027931352280  0.5800616725450261  0.4947032406371167
  0.2526374058846237  0.7650742853455401  0.4998935116195592
  0.0819448281970094  0.8279346214819275 -0.0049599450378597
  0.7824175651056139  0.1423374382394019 -0.0331860117620347
  0.8648786113964497 -0.0190779156392183  0.9806092440488661
  0.7415415861455109 -0.0297775799808402  0.9772063866195692
  0.9457186973338517  0.3222326082927729 -0.0073025810817684
  0.7864993702454300  0.4014285892910097  0.4902827201130550
  0.8612421431077147  0.2317932922930861  0.4798181517568593
  0.6263274084212128  0.0101443081028387 -0.0358748337182426
  0.9441531636305930  0.0657040257500344  0.4879414732852696
  0.9112752168580438  0.1491937333934295 -0.0136843766208214
  0.5559371747985449  0.3993001337055276  0.5733760740611001
  0.9133964439694413  0.3976261336469967  0.4936774566745677
  0.7026392179447127  0.0685811354832004  0.4650655553011485
  0.6154465370767884  0.2873226329152512  0.3083746367980042
  0.5926155993148854  0.1180171451181153  0.4278457155560126
  0.7353398680008024  0.2372058008603049  0.4415383643484339
  0.7894166468499874  0.6480686667949523 -0.0058201610676798
  0.8710928742596040  0.4766138668599307  0.9936217939475295
  0.7488440988160268  0.4820870664456701  0.0141622020645813
  0.9559332526105270  0.8115768560816539 -0.0098314807374578
  0.7851001905152054  0.8858170845246784  0.4822895070145676
  0.8703971125054244  0.7291688404562410  0.4897264819681383
  0.6183091572149995  0.4601030948441844  0.0666138886441304
  0.5436661178253697  0.6787880308199157  0.0041083761315795
  0.9552909072261125  0.5658913851155541  0.4916160841642743
  0.9141591937395975  0.6453226785037250 -0.0090983599291034
  0.5470592291421473  0.9521618017960825  0.4724414308419420
  0.9143201529392228  0.8974355508199733  0.4878063293546926
  0.7028589320022958  0.7989924301353701 -0.0073225446423197
  0.6940510394408692  0.5293495285891116  0.5275442595748683
  0.6206635041565064  0.7349544085178636  0.5012023260661393
  0.5776665279672544  0.5694133968487378  0.5181536000991999
  0.7410822582684214  0.7099329673346075  0.4953457894442773
  0.5850559088819451  0.8443862037406340 -0.0122144869641071
  0.3367410162455823  0.8527712960162122  0.0017051871690569
  0.3380687066065156  0.6186582848127938  0.5049119666948162
 -0.0036626022256236  0.4908017316848290 -0.0068751476322266
  0.1678252302372643  0.6756581397395087 -0.0011108090395834
 -0.0025853733429660  0.7333530868915197  0.4919506039877765
  0.1703706574026406  0.9132271183068377  0.4950913779651399
  0.8098160964750007  0.3127357850295113 -0.0239538424312778
  0.8220333082418126  0.0592845033127516  0.4738198271138861
  0.5100536068862227  0.0486628468872940 -0.0338293035877512
  0.6648518655257427  0.1767718355740630 -0.0679997677765428
  0.5506814084243410  0.2248639588939652  0.8306715064378071
  0.6791306652602138  0.3447705371660143  0.8005804320640850
  0.8315008126621483  0.8137897645538372 -0.0142749961295225
  0.8266734052820042  0.5648805709375534  0.4966789942342060
  0.5028328589309544  0.5122601264756910  0.0136369413487767
  0.6613767412684899  0.6291336010327014  0.0157672862557473
  0.5049143299570109  0.7847971376770908  0.4953800946083282
  0.6625232498266456  0.9016946024802167  0.4821473283357373
  0.3551933129800854  0.3522920305787129  0.0145643843935155
  0.3414865554707672  0.1152329299804907  0.4973929425969048
 -0.0029542466009845 -0.0087785019893875 -0.0094781767721748
  0.1695276175209711  0.1728366692732986 -0.0038010216729493
 -0.0029700845737688  0.2379089309690900  0.4916784115777771
  0.1729997898336685  0.4173186813785961  0.4982195219516247
