POSCAR file written by OVITO            
   1.0000000000000000     
    25.7972940654753451    1.9268975202479748   -0.0000003068806870
     1.3672804521102666   17.0396517880630860    0.0000002364194275
    -0.0000000670780013    0.0000001020389211    5.1828231291053335
   Mg   Nd
    88     6
Direct
  0.2824143891203149  0.1395432522753156 -0.0000031704624124
  0.3724313187799463 -0.0332156205237014  0.9999968663080966
  0.2523561194674189 -0.0262156413714774  0.9999968679418083
  0.4523637655192681  0.3136621789159116 -0.0000031357480368
  0.3030075969084995  0.4283244410507141  0.4999968992219631
  0.3982404680059387  0.2521152569833133  0.4999968899415188
  0.1312537815368825 -0.0296362809194553 -0.0000031392410129
  0.0323730584533373  0.1660591245338768 -0.0000031908137026
  0.4796312353349393  0.0901237064580031  0.4999968536572170
  0.4126940254980311  0.1449332644513339 -0.0000031426286030
  0.0410374310313902  0.4502685201314388  0.4999968468989380
  0.4287764450244696  0.4201428539002263  0.4999968484898734
  0.1941803465085853  0.3247811391442856 -0.0000031654260464
  0.2209663807697448  0.0718710013473684  0.4999968947466694
  0.1266859944548040  0.2622186645109562  0.4999969219387452
  0.0885933175246677  0.0849047981659256  0.4999968800320990
  0.2498844874408480  0.2470029374691217  0.4999969060640311
  0.0711528975637786  0.3371797403883368 -0.0000031546604240
  0.2867117936069409  0.6434138969691278 -0.0000031220147771
  0.3652750819000413  0.4802862698406749  0.9999968685630247
  0.2407952886606849  0.4843429933261255  0.9999968550869637
  0.4530717322470611  0.8083454275052727 -0.0000031207303017
  0.3167591040644485  0.9093950352147887  0.4999968458080670
  0.3985601784669209  0.7507398586360482  0.4999968392444570
  0.0988326212746409  0.5020169389357911 -0.0000031278411102
  0.0211728941083255  0.6602141611799300 -0.0000031309960877
  0.4764001304325566  0.5883543522615274  0.4999968453722704
  0.4102096472339553  0.6422820047608067 -0.0000031200595815
  0.0717471357521912  0.9133484493844181  0.4999968363543899
  0.4380900495503194  0.9189230202746086  0.4999968474752608
  0.2075999552971829  0.8018300462170229 -0.0000031272561725
  0.2275220021901753  0.5943950060015619  0.4999968543904099
  0.1484825391992490  0.7536550041923454  0.4999968475506619
  0.0897145788664448  0.6086124253675409  0.4999968476288991
  0.2751426303914920  0.7494184093618078  0.4999968382779937
  0.0811319010733653  0.8088972207923453 -0.0000031398318566
  0.7801514994826161  0.1635792647288685 -0.0000031454732805
  0.8679041925713938 -0.0026509822080787  0.9999968525612168
  0.7413303055934025 -0.0061569755845125  0.9999968437709261
  0.9302254839144445  0.3430387182093162 -0.0000031411129415
  0.7955489548028801  0.4420414621752066  0.4999968489899036
  0.8752997413158433  0.2783710426013643  0.4999968429020517
  0.6158179641697091 -0.0121110979293445 -0.0000031441745119
  0.5351758577202087  0.1498620726991616 -0.0000031419537988
  0.9631671856682110  0.1001966540690974  0.4999968412458352
  0.9084341334139662  0.1710227982135630 -0.0000031350531485
  0.5566878135714127  0.4281267355442983  0.4999968597690500
  0.9179989738984076  0.4467170619674997  0.4999968347101750
  0.6920785591613339  0.3257659414019822 -0.0000031421004228
  0.7231853183236233  0.1024456263309567  0.4999968603606297
  0.6387848614263477  0.2666248331093378  0.4999968574658765
  0.6012233989622555  0.0957149568523194  0.4999968526467448
  0.7572948076302920  0.2731636859067612  0.4999968527595829
  0.5737474097627902  0.3212048254170485 -0.0000031384183662
  0.7721528375471212  0.6620240394740136 -0.0000031383960282
  0.8493414273477576  0.5019308924960701  0.9999968717185429
  0.9431727179655852  0.8258955633581485 -0.0000031411886638
  0.8068459397570756  0.9381967409108721  0.4999968603961152
  0.8849944496620180  0.7729328042980005  0.4999968557623608
  0.5322229493385635  0.6471384641821751 -0.0000031297406292
  0.9634391556240971  0.6128834464489472  0.4999968433311914
  0.8956556055901783  0.6644496708846448 -0.0000031319706993
  0.5619481394333394  0.9269024722709459  0.4999968480811284
  0.9313045776532219  0.9344646755919277  0.4999968532551309
  0.6949971923389302  0.8246434986142180 -0.0000031427260922
  0.7193642398732905  0.5996105942628654  0.4999968541001037
  0.6413436748324272  0.7635726336505037  0.4999968541770966
  0.5978532454953782  0.5927975067648207  0.4999968545980024
  0.7624042537998779  0.7707540479032093  0.4999968570057525
  0.5735839969975731  0.8177115834204199 -0.0000031338766249
  0.3296967013140003  0.8032013324760424 -0.0000031129636144
  0.3544345293955891  0.5890597618006952  0.4999968482260552
 -0.0249701740233904  0.4973517603167988 -0.0000031247426581
  0.1580674237185571  0.6411217568111233 -0.0000031323101854
  0.0123273227436841  0.7734734398107729  0.4999968524261231
  0.1945197735622836  0.9085493844013953  0.4999968512594366
  0.8093765830259990  0.3348093179367417 -0.0000031359935944
  0.8439858742925825  0.1054638606468621  0.4999968562229103
  0.4910794538749024 -0.0179559442130025 -0.0000031338895577
  0.6561539995992635  0.1554620793827718 -0.0000031507231512
  0.5198268268772854  0.2594840651825525  0.4999968519130152
  0.6766688528299665  0.4368730770774977  0.4999968597286464
  0.8179377982392626  0.8293697528275740 -0.0000031473706426
  0.8403329789759748  0.6083763064822555  0.4999968435623577
  0.4903634388426781  0.4817964670201512 -0.0000031341962734
  0.6526558968202728  0.6504478081133082 -0.0000031404574900
  0.5201249279431017  0.7577744222490899  0.4999968461478205
  0.6844183126683175  0.9343838874532641  0.4999968545928870
  0.3209185796020100  0.3069489261991880 -0.0000032108631316
  0.3474271987112268  0.0885503157972016  0.4999968800060107
  0.0034072129095654 -0.0090884614465787 -0.0000031161443633
  0.1583659100404154  0.1555672741298419 -0.0000032458353027
  0.0021231565591156  0.2707303401753590  0.4999969159569934
  0.1707401775728509  0.4306569181992826  0.4999968737421626
