POSCAR file written by OVITO            
   1.0000000000000000     
    25.0319837218408843   -1.0903544119614086    0.0000006395949647
    -0.7725174534846541   18.2343833011755230   -0.0000007749408766
     0.0000000929623362   -0.0000001833350631    4.9454192202289802
   Mg   Nd
    88     6
Direct
  0.2965316714805649  0.1712466286684405 -0.0000030100527032
  0.3886841503434385  0.0055891902540681  0.9999969378510585
  0.2578585238430280  0.0031540934557829  0.9999968470881444
  0.4693661283086444  0.3412325170492453 -0.0000031661450329
  0.3008313011935534  0.4355871443500742  0.4999968314971114
  0.3935750657269523  0.2603842595689532  0.4999968344850372
  0.1287476186734129 -0.0131847842790885 -0.0000031790673549
  0.0439181331925730  0.1589274236718894 -0.0000031636692269
  0.4695869108749735  0.0875300849621626  0.4999968347268087
  0.4248118647657143  0.1752248962866992 -0.0000031416510913
  0.0399216377978872  0.4169347554344150  0.4999968148146719
  0.4220218084933119  0.4263257241090586  0.4999968300579763
  0.2124764839870488  0.3293789026442608 -0.0000030477178445
  0.2081744951957419  0.0651412784796135  0.4999968431458309
  0.1275580684303400  0.2444757138987071  0.4999968142160949
  0.0818556920070381  0.0745997919345187  0.4999968219306043
  0.2559524766851132  0.2505427887307807  0.4999967668782925
  0.0850525101363711  0.3287815925010228 -0.0000031617023367
  0.2935811083533632  0.6733444749324036 -0.0000031748581143
  0.3779775831472985  0.5156238594564109  0.9999968374986499
  0.2516670657144228  0.5012267502331921  0.9999968425625170
  0.4616728338050911  0.8444746236972449 -0.0000031668275755
  0.2902563354567922  0.9168178154829405  0.4999968319048052
  0.3754783323404262  0.7616252751283420  0.4999968285062243
  0.1238500340257531  0.5025281883063700 -0.0000031249697506
  0.0432633211198269  0.6593178539890561 -0.0000031870510143
  0.4600483562851423  0.5917796724604941  0.4999968225394303
  0.4196142930514806  0.6792027626443139 -0.0000031733942254
  0.0420297394873599  0.9022375991540011  0.4999968210819892
  0.4149802327177460  0.9255092405604626  0.4999967970700261
  0.2103806299602093  0.8343409467710300 -0.0000031841210542
  0.2120089477518969  0.5872433325606674  0.4999968255122227
  0.1228265815532086  0.7425973657262079  0.4999968146433524
  0.0856689006729805  0.5774878751829473  0.4999968083417711
  0.2497531342385742  0.7522644124300579  0.4999968473704585
  0.0817988209335930  0.8259263895404545 -0.0000031922991014
  0.7826387658340306  0.1661164552950816 -0.0000032108204498
  0.8635677678785648 -0.0033901036947504  0.9999968027931424
  0.7368801119618041  0.0031940112223785  0.9999967819863279
  0.9560956700566120  0.3311016799476204 -0.0000031921799816
  0.7940579361430480  0.4187533757575029  0.4999968001821447
  0.8741075484522998  0.2426592255382084  0.4999968007819939
  0.5574558102293561  0.1687196866947345 -0.0000031592172591
  0.9424773532451006  0.0741965415671889  0.4999968073079774
  0.9153203078956103  0.1600940714226849 -0.0000031928126888
  0.5467579874972461  0.4262224074954629  0.4999968240041441
  0.9174343506297264  0.4075290821698890  0.4999968035423148
  0.7068157880347014  0.3160602267198808 -0.0000032037341222
  0.7042012709953297  0.1021737316649651  0.4999967621405703
  0.6347245389132916  0.2368334176682128  0.4999968269592217
  0.5880299256079586  0.0705223702867070  0.4999968531624757
  0.7572093574072779  0.2573274730555724  0.4999968119688223
  0.5895697415091192  0.3357272447268088 -0.0000031739369219
  0.7912810319657755  0.6606411349245265 -0.0000032037811308
  0.8735490435882216  0.4923444706509376  0.9999967988502263
  0.7484996897892362  0.4914729143052787  0.9999967956453049
  0.9572265665841306  0.8187025700512466 -0.0000032002546811
  0.7860290529994642  0.9143333554017783  0.4999967903338193
  0.8752815576125386  0.7418236374413189  0.4999968025166059
  0.6262548101355764  0.5037373467725843 -0.0000031852889582
  0.5452469508286071  0.6804827046167448 -0.0000031766215630
  0.9580368668297459  0.5739111545990986  0.4999968057235707
  0.9166040348655226  0.6555760890911746 -0.0000032048168994
  0.5373530750049595  0.9123958096391427  0.4999968336793243
  0.9142256467485391  0.9081987560542428  0.4999968061158435
  0.7099722239226707  0.8354997139886778 -0.0000032089228012
  0.7088037238170102  0.5777112274641578  0.4999968011359251
  0.6252490705741398  0.7631020195846059  0.4999968129369263
  0.5857566077627562  0.5950607765789215  0.4999968224057901
  0.7495738133249571  0.7447045406658974  0.4999967976341453
  0.5894022431833355  0.8535526263795339 -0.0000031891026691
  0.3355148319005999  0.8412250282193080 -0.0000031734986449
  0.3368468175011531  0.5995303455400345  0.4999968385763454
 -0.0023618749498174  0.4970732404439261 -0.0000031933963325
  0.1686428421554759  0.6685320685381491 -0.0000031829817491
 -0.0006382604525151  0.7376157770719044  0.4999968156962366
  0.1659897896122057  0.9030668239826261  0.4999968427845018
  0.8312002135290598  0.3287236508611033 -0.0000032025802370
  0.8208946977714763  0.0815715833517904  0.4999967959075480
  0.5176236162440021  0.0045356623449184 -0.0000031800177157
  0.5150346763193641  0.2548696675532217  0.4999968252587397
  0.6691365913790017  0.4081157321835414  0.4999968137123637
  0.8339943550552841  0.8286502675728692 -0.0000032063660311
  0.8339912865259964  0.5801419441146975  0.4999968009618330
  0.5022799969589310  0.5109055849946952 -0.0000031713355583
  0.6678928025199360  0.6698475681402803 -0.0000031949108187
  0.4984494144698733  0.7529006216310338  0.4999968240599594
  0.6624471145838413  0.9335213522286588  0.4999967911971923
  0.3373597500391565  0.3368396646386245 -0.0000031636814628
  0.3393498553371313  0.0929736655080256  0.4999965777277160
 -0.0033020579047677 -0.0043935477454676 -0.0000031918479112
  0.1702101938724397  0.1625053167618226 -0.0000031864076587
  0.0027280970031882  0.2393347532681986  0.4999968056132981
  0.1705843309497952  0.4105205420708633  0.4999966270151389
