POSCAR file written by OVITO            
   1.00000000000000     
    25.1689057628442967    1.3494748599378770   -0.0006417355318258
     0.9819802166727747   17.2685620500828740    0.0001642294260978
    -0.0001347799240401    0.0000551684976563    5.1609635003601486
   Mg   Nd
    86     6
Direct
  0.2938182101971011  0.1583815610108627  0.0000867927489871
  0.3936493265869248 -0.0215695176548250  0.0001029791480915
  0.2633066324830804 -0.0104367957189302  0.0000463654214795
  0.4725307666975540  0.3443736256212378  0.0001762725366456
  0.2939243912397863  0.4349967343021434  0.5000739134963985
  0.3939735795664858  0.2463684336000010  0.5001186893541434
  0.1351991044771478 -0.0160364133494519  0.0000165717706586
  0.0384921585621350  0.1729710662837273  0.0000026151964165
  0.4791490704402130  0.0623093250165619  0.5002525054906668
  0.4250560979164834  0.1559849153929653  0.0001546122277553
  0.0371543678727171  0.4515525015852339  0.4999971639874023
  0.4145538573922834  0.4130505067941419  0.5001292890201436
  0.2058282364512877  0.3306713309259980  0.0000532212456755
  0.2213381136933787  0.0774780581719491  0.5000374428118992
  0.1274919333282289  0.2581420629450386  0.5000098674639490
  0.0901714475417044  0.0898466562071830  0.5000069535617048
  0.2564723997864350  0.2522405298817463  0.5000698948734836
  0.0769445530172788  0.3418721083383492  0.0000068180456569
  0.2817889402489144  0.6535213470348057  0.0000571530844335
  0.3723338645254902  0.4961035195806089  0.0001066772008217
  0.2365776033107299  0.4957261122859061  0.0000552626726221
  0.4545587409913437  0.8076100367041414  0.0000637195912696
  0.3172479593039823  0.9102941084513730  0.5000469271768835
  0.3936537435718772  0.7496153531347248  0.5000521926054868
  0.1009071813342522  0.5090351040681403  0.0000161745357093
  0.0237456922793561  0.6661598811751246 -0.0000054913459794
  0.4668182670221968  0.5700655976320592  0.5000158302241408
  0.4047684682596949  0.6539091449174458  0.0000558235664918
  0.0700194762769072  0.9213964619995537  0.5000044037423454
  0.4383691219039069  0.9061894495660681  0.5000983965516714
  0.2080607551493784  0.8166926076780788  0.0000327301001840
  0.2182754470861307  0.5978653430151717  0.5000434162079878
  0.1444563844976982  0.7614791187099904  0.5000218337901218
  0.0900441671603373  0.6073495246840906  0.5000082198848808
  0.2705997504301439  0.7534810864414254  0.5000451030123810
  0.0802977258725272  0.8242824478535479  0.0000098260277327
  0.7761528302356239  0.1611804003622758 -0.0000927648407498
  0.8678400910541559 -0.0013112362113239  0.9999479819507779
  0.7385178809029364 -0.0111435329649594  0.9998946876495322
  0.9328725768077114  0.3468661371766581 -0.0000284260434112
  0.7909700831303346  0.4366681264520172  0.4999427094321692
  0.8720456825967912  0.2789486616331909  0.4999533757397999
  0.6086632295814108 -0.0233863494633818 -0.0001989582888681
  0.9616895576678069  0.1019783223153660  0.4999723309633856
  0.9098400911187076  0.1754415526732153 -0.0000389905110249
  0.5398342704630628  0.4032010462672761  0.5000663071930209
  0.9153487277488064  0.4456652499403584  0.4999663004526889
  0.6805676170344973  0.3157116677503706 -0.0001369835725144
  0.7187354493067534  0.0946466270529174  0.4998662123302612
  0.6299331801681547  0.2512596479534044  0.4997819477271292
  0.5968530839537642  0.0797286744727588  0.4997642054215413
  0.7513488407869999  0.2666582712948459  0.4999036894967765
  0.7694775256201858  0.6566712298572024 -0.0000545351199633
  0.8472548511002373  0.4996469787019709  0.9999558844293137
  0.7203523779577055  0.4856051680743868  0.9999368878391134
  0.9456795933177412  0.8306204289891359 -0.0000237741223444
  0.8056074484869455  0.9347687803564095  0.4999240516355707
  0.8855825221928305  0.7729584933489313  0.4999594420678127
  0.5250773180525077  0.6381392655942266 -0.0000031385571417
  0.9629484163938303  0.6144613239566953  0.4999806325717142
  0.8949262232263820  0.6676928487078587 -0.0000329399819545
  0.5592698803950082  0.9095920541898261  0.4998001544840046
  0.9326433816924725  0.9350361533655465  0.4999691366600570
  0.6939084964860409  0.8174892253024403 -0.0000904189921245
  0.7146030072108901  0.5928513433055392  0.4999429109212694
  0.6389438095041565  0.7511946759170613  0.4999145377520563
  0.5903614386337682  0.5795826118928781  0.4999895680629096
  0.7616298252172224  0.7641596825407523  0.4999319706769352
  0.5736171594420333  0.8045148787605707 -0.0001115296816567
  0.3313014065547997  0.8138970341712594  0.0000487909383009
  0.3446859648109713  0.5934674134812487  0.5000735005739487
 -0.0268071225605246  0.5062095597628824 -0.0000175704783837
  0.1548847938317023  0.6580694129638770  0.0000271410376369
  0.0140233843555334  0.7740727452238179  0.4999906557514782
  0.1953006224412558  0.9153543314881203  0.5000262451076561
  0.8061299928477336  0.3315426259313483 -0.0000647426487132
  0.8413860994706372  0.1048621631343813  0.4999315924856726
  0.6475736414621638  0.1452035199360611 -0.0002024432486636
  0.5125662352715451  0.2288376587849342  0.5003752859249599
  0.6653378828409613  0.4224030192181039  0.4999235207212865
  0.8181280585876228  0.8284334693240158 -0.0000602062061151
  0.8390424297158340  0.6055687927107860  0.4999557774577940
  0.5890241401134616  0.4681371960344857  0.0000129531391800
  0.6466948598174169  0.6436128714193707 -0.0000511884979664
  0.5155600581044942  0.7431780618380678  0.4999901562631991
  0.6817940894645239  0.9237372817021505  0.4998752839508766
  0.3348626486844544  0.3246244779441497  0.0001005970185496
  0.3496428079234615  0.0840806502263608  0.5001083083238783
  0.0037895682217398  0.0027583081946744 -0.0000143100761184
  0.1664812210566571  0.1661201298873169  0.0000220705440427
  0.0017585455168871  0.2699885207936547  0.4999903398698295
  0.1653601795040530  0.4236344649763719  0.5000363412711392
