POSCAR file written by OVITO            
   1.00000000000000     
    25.0471088855087807   -0.8251478707421352   -0.0000076828569684
    -0.5856482002085821   18.1458543643562535    0.0000077280278279
    -0.0000014610568053    0.0000020672815222    4.9810669712457969
   Mg   Nd
    89     6
Direct
  0.2921391746231878  0.1717584548509740 -0.0000027807586095
  0.3819383378673884  0.0032966927998478  0.9999969879645364
  0.2560327986961134  0.0016558797575450  0.9999968979519072
  0.4640052978279343  0.3463858656427962 -0.0000030830672097
  0.2982052643586796  0.4447666801836071  0.4999969109805404
  0.3887269962609736  0.2654996055804231  0.4999968580349630
  0.1302867464536863 -0.0144998374565553 -0.0000030737082916
  0.0415862515375133  0.1608523453296340 -0.0000032585630341
  0.4654291920321145  0.0935028766415330  0.4999969335950132
  0.4182241390466010  0.1779588802592927 -0.0000030816654493
  0.0363315068478064  0.4207427492576761  0.4999968821845057
  0.4181123253145596  0.4352804225964512  0.4999969114237042
  0.2061422115921089  0.3279318423027747 -0.0000033477443457
  0.2068628643779516  0.0666439045783641  0.4999969027626091
  0.1242564856477549  0.2454537525047865  0.4999970433316113
  0.0814381155929294  0.0760760269216205  0.4999968686233107
  0.2522040315494108  0.2522499892316465  0.4999969006973268
  0.0806647330204992  0.3294795340406003 -0.0000030928469513
  0.3000760858939054  0.6640805239512650 -0.0000030917747499
  0.3684511310131936  0.5138231875305853  0.9999968519199948
  0.2432441055099896  0.4961471466734645  0.9999968852274125
  0.4637223541926033  0.8379582725269547 -0.0000030914354307
  0.2970322879006778  0.9173904285498951  0.4999969124523425
  0.3825810752426995  0.7671214762793469  0.4999968495492829
  0.1169216041562826  0.4997440179937733 -0.0000031917582487
  0.0471643942561728  0.6585723628839176 -0.0000031203899228
  0.4267930987039832  0.6715118031394748 -0.0000031187467471
  0.0481984122761687  0.9028795672013773  0.4999968799298750
  0.4219003501048240  0.9304041871455322  0.4999968385752117
  0.2132400429143276  0.8292188644495658 -0.0000031249159479
  0.2229545777014280  0.5871060078256426  0.4999969233189340
  0.1308951716020964  0.7418977903875112  0.4999969175121071
  0.0894336495009070  0.5792295453206079  0.4999969597116192
  0.2579834566878951  0.7517091453449923  0.4999969075341183
  0.0867231839948857  0.8245779228221267 -0.0000031209672165
  0.7895675713604230  0.1657236453127640 -0.0000030810741488
  0.8694902017310127 -0.0036263931564750  0.9999968843156195
  0.7486777521381287 -0.0002130630191166  0.9999968936628016
  0.9527841621961711  0.3343120131597567 -0.0000031005884011
  0.7870044818177757  0.4171252047667958  0.4999969118823267
  0.8693304346271451  0.2441625006921092  0.4999969029954727
  0.6277158592139848  0.0023659129517620 -0.0000031089034966
  0.5445869222810199  0.1691292327757625 -0.0000030884622184
  0.9452844479994529  0.0740677661535475  0.4999969347938806
  0.9160544628032232  0.1615143874773741 -0.0000030638470640
  0.5403532556271238  0.4232777187138441  0.4999969188406035
  0.9127097464003946  0.4102316440279374  0.4999969446658116
  0.7075359286955248  0.3353215337805470 -0.0000030756613431
  0.7043995504254889  0.0839371770588269  0.4999969017369362
  0.6280618574686170  0.2498243207709137  0.4999969416851442
  0.5842778733714028  0.0829128387190589  0.4999969130449681
  0.7487980001866300  0.2492555672229277  0.4999969452407259
  0.5857597346176766  0.3363784547802022 -0.0000030848012261
  0.7954454780194934  0.6652390500044555 -0.0000030882014507
  0.8693679952519643  0.4954299005562683  0.9999968861642345
  0.7448251620802842  0.5028121662751810  0.9999969067932121
  0.9638167412390967  0.8175282811921440 -0.0000030693989426
  0.7941198004236424  0.9114615089125195  0.4999969163947692
  0.8798614587306210  0.7405455813421178  0.4999969244375649
  0.6189490788202223  0.5073816391410167 -0.0000030861828542
  0.5517097835516063  0.6764296707599863 -0.0000030608149127
  0.9575089192433063  0.5766737493202669  0.4999969489823555
  0.9195982498921516  0.6564445885783941 -0.0000030649787413
  0.5450287179784656  0.9122872367481495  0.4999969457496863
  0.9207626932266049  0.9066256337598003  0.4999969063348599
  0.7161277516808100  0.8325277846873064 -0.0000030920033980
  0.7030492714337716  0.5834887633166137  0.4999969090299917
  0.6268939357417811  0.7488312882328255  0.4999969097176384
  0.5734280881769980  0.5879029061285778  0.4999968683545229
  0.7530739239581082  0.7453834512423788  0.4999969200885196
  0.5913109380331156  0.8381508866467575 -0.0000030996940164
  0.3368541935865810  0.8352834704443992 -0.0000030586970408
  0.3616862910251272  0.6037682511973862  0.4999969684445922
 -0.0072258390303695  0.4998633517980040 -0.0000031109575165
  0.1739047474642768  0.6604666021116893 -0.0000030940846846
  0.0061608087437081  0.7372832380513649  0.4999969103373192
  0.1729015415573319  0.9028746197511514  0.4999969416937896
  0.8294071612138805  0.3311803505720320 -0.0000030903789441
  0.8244399646748131  0.0799158077012463  0.4999969100277911
  0.5055240098404187  0.0022113242712960 -0.0000030687782944
  0.6672774063666830  0.1684376870822147 -0.0000031110604195
  0.5081326922049292  0.2568508091805490  0.4999969365320825
  0.6630571155783719  0.4185732313452615  0.4999969437994048
  0.8413768188429280  0.8285970052209189 -0.0000030882163498
  0.8306570060651784  0.5805091260992539  0.4999969007411926
  0.4926848028305677  0.5196188581421650 -0.0000030506109267
  0.6728226506225470  0.6692993089851554 -0.0000030604877905
  0.5006191659357109  0.7399210901965725  0.4999969435712350
  0.6700188198515884  0.9152297352181523  0.4999969119888178
  0.3308648748648126  0.3383456006447575 -0.0000030069187146
  0.3364076945372808  0.0957736446236262  0.4999966100563822
 -0.0000954661833363 -0.0044175750069312 -0.0000031023607483
  0.1670286374604237  0.1621777710000230 -0.0000031364031781
 -0.0007197363925250  0.2418667823240744  0.4999970092334956
  0.1674535195965314  0.4115806629633438  0.4999971032902025
