SCAR file written by OVITO              
   1.0000000000000000     
    24.8053707878194807   -1.2054103153543598   -0.0000088951252623
    -0.8603425437679970   18.1061809245109124    0.0000090998102414
    -0.0000016407196081    0.0000025147785708    4.9824080948951837
   Mg   Nd
    87     6
Direct
  0.2965883688128382  0.1764999041067291 -0.0000017629230615
  0.3970146035391333  0.0154215655475968 -0.0000024637126683
  0.2615056555495453  0.0078940410552855 -0.0000030382516272
  0.4746377683709159  0.3370396950753927 -0.0000032051421025
  0.3037665369544601  0.4408817063483889  0.4999968073124221
  0.4109771395635170  0.2675476129524945  0.4999966513478364
  0.1311734173646038 -0.0122954289313227 -0.0000031052045791
  0.0433390408572206  0.1567019974252257 -0.0000037743856544
  0.4737718707617866  0.1038820154095790  0.4999966167212373
  0.4213584586330066  0.1797438258937605 -0.0000029312950526
  0.0396214462832627  0.4151624010240736  0.4999968064988465
  0.4265954390950810  0.4377975992914140  0.4999968442127142
  0.2167358258801571  0.3340653766174505 -0.0000036389477374
  0.2106201102532788  0.0696336377509796  0.4999969540771956
  0.1281741661507275  0.2455053716653047  0.4999973790091460
  0.0834839390876157  0.0741911587033286  0.4999969186884802
  0.2594298362021131  0.2564791110018284  0.4999965475565110
  0.0858899180560713  0.3282242501753831 -0.0000034227490493
  0.2951221121052260  0.6814784396067640 -0.0000030516351972
  0.3802176564630011  0.5284243718541538  0.9999968488252232
  0.2532402481691086  0.5068751486733269  0.9999967271855974
  0.4673675390631509  0.8712092108453444 -0.0000031309545839
  0.2917983285965613  0.9219132521521139  0.4999968880297549
  0.3764223578476403  0.7710269903234170  0.4999968367643857
  0.1242328254161288  0.5036481998943505 -0.0000033710829939
  0.0420849210811358  0.6583369020119922 -0.0000032342145455
  0.4626914703383675  0.6083741973778850  0.4999968989330503
  0.4218367073387334  0.6982040895779332 -0.0000031066758032
  0.0440847416742567  0.9003896982720235  0.4999968319305002
  0.4159292400801561  0.9352042689394734  0.4999965018294681
  0.2129211316081865  0.8382278430897412 -0.0000031904341696
  0.2116056238345651  0.5907237161254870  0.4999967900092278
  0.1224557448907678  0.7435122061817100  0.4999969370773229
  0.0849758584793476  0.5769651297276320  0.4999968225842761
  0.2499684764208790  0.7562840602559650  0.4999968967804193
  0.0818681767788223  0.8257108192052617 -0.0000031123895356
  0.7842506566880686  0.1402996716652986 -0.0000029619314668
  0.8630679301615489 -0.0076914908536792  0.9999968680916234
  0.7312981393434056 -0.0470329042394700  0.9999969460425038
  0.9549412061515604  0.3285645816013127 -0.0000032778765240
  0.7884922579493235  0.3973231274137838  0.4999969156378918
  0.8710251038533591  0.2420097414734046  0.4999967852100509
  0.6135424405973506  0.0029591189120136 -0.0000030802912010
  0.9474119331339340  0.0683760869341782  0.4999969804626735
  0.9146246558288602  0.1559881930032000 -0.0000031970692248
  0.9159322918033062  0.4035947073047547  0.4999968750473445
  0.7071875105785923  0.3266312245424698 -0.0000031281287015
  0.7046271153600492  0.0537529905595245  0.4999969078476278
  0.6296868216795136  0.2715220282813662  0.4999969675605833
  0.5935110553618843  0.1079609946356431  0.4999970618801431
  0.7460090609104827  0.2259382671589377  0.4999969175644435
  0.7867840890633860  0.6594362273036314 -0.0000031391610757
  0.8708639375714093  0.4796694591798771  0.9999968516933673
  0.7466564778620344  0.4930131903674136  0.9999968702705228
  0.9539790476051376  0.8119893897243066 -0.0000031054052985
  0.7922840544455334  0.9217652530266184  0.4999967914458296
  0.8740173562889496  0.7326523259828728  0.4999968644668898
  0.6007298036927345  0.3990060181431126 -0.0000032267759759
  0.5427939903768295  0.6685593840354159 -0.0000031298086245
  0.9569733986085921  0.5705451692143936  0.4999969106442028
  0.9135888643827421  0.6461299399046240 -0.0000031907191220
  0.5425646314259027  0.9440804610645154  0.4999969879582399
  0.9160656824286015  0.9015146674565551  0.4999969231192333
  0.6885015280935060  0.7622913374853634 -0.0000030345793485
  0.7123277297239443  0.6006781252533440  0.4999968399391250
  0.6188387350836002  0.7109081611039566  0.4999968500652694
  0.5747239219640166  0.5414532430757628  0.4999969361299003
  0.7545367844115359  0.7607617853381831  0.4999967743765862
  0.5841981537599559  0.8349121238905748 -0.0000030591906030
  0.3400957747750846  0.8516013461325769 -0.0000030861993713
  0.3372426803709746  0.6079531571088643  0.4999969130891574
 -0.0033215129752349  0.4951399706556533 -0.0000032432198013
  0.1687918238836904  0.6717880486265175 -0.0000031965285936
 -0.0015666100756802  0.7358705891995779  0.4999968260903066
  0.1678275088279726  0.9050391432026369  0.4999968172737665
  0.8281816103717204  0.3122027442875816 -0.0000030629322220
  0.8292777028063508  0.0828225547836458  0.4999967637558270
  0.5496077075376975  0.2082576836174443 -0.0000029415507691
  0.6662159500912771  0.1619560076536853 -0.0000030737517083
  0.5369718283289923  0.3685505035838310  0.4999967002798784
  0.6699103522829047  0.4376293990518159  0.4999967726303622
  0.8260438001510141  0.8268502818317648 -0.0000031187706442
  0.8315641198017965  0.5660601118887229  0.4999969135455530
  0.5023218304148513  0.5019093454814385 -0.0000031283608651
  0.6432515817488416  0.5800157998218171 -0.0000030165478070
  0.5031921116877474  0.7752500345490340  0.4999968801384464
  0.6620976766558130  0.8827757560452444  0.4999968985911775
  0.3444982517313220  0.3427614776938873 -0.0000033348235281
  0.3425463104448082  0.1012945416082602  0.4999942311353388
 -0.0018230583204112 -0.0096943446051170 -0.0000030869308759
  0.1705454349288726  0.1659031225497741 -0.0000037884928210
  0.0017932632780088  0.2366389123090994  0.4999975008863277
  0.1717031354605105  0.4122455997515714  0.4999972178006165
