POSCAR file written by OVITO            
   1.00000000000000     
    25.0788146556793876    0.8769601011837603   -0.0000006848477311
     0.6309534003151963   17.3013413022927836    0.0000003950545634
    -0.0000001798048269    0.0000001370786141    5.1877210447841762
   Mg   Nd
    88     6
Direct
  0.2923877392118017  0.1532107382836421 -0.0000030335820828
  0.3773257950327815 -0.0273398705153954  0.9999969140827843
  0.2593397246260787 -0.0091626151494525  0.9999968764877003
  0.4585657937165834  0.3261579112502260 -0.0000030562518274
  0.2963854567383873  0.4328503391794872  0.4999969334237565
  0.3989568776918513  0.2532910622667033  0.4999969180404934
  0.1371489983083461 -0.0118221132675746 -0.0000029167808631
  0.0456881495999688  0.1709313126154660 -0.0000030702570713
  0.4815354694842615  0.1040387263702644  0.4999969160972018
  0.4158852415093932  0.1545463976124258 -0.0000030595692952
  0.0258836196435063  0.4184455879577488  0.4999969409349105
  0.4241574486271957  0.4267035319671013  0.4999969532509121
  0.2045283625242472  0.3269129592328919 -0.0000030929596293
  0.2140970600540089  0.0606719512983811  0.4999968926637581
  0.1191949926471034  0.2451871527951264  0.4999969381358355
  0.0838883379541409  0.0725483188214334  0.4999969676991985
  0.2521054407216634  0.2445088634678468  0.4999969135393716
  0.0807955920221210  0.3375400325425779 -0.0000030729917185
  0.2875768239048917  0.6503617492653173 -0.0000029530860492
  0.3661194552363237  0.4963604114112343  0.9999969682715616
  0.2405992381202430  0.4896371535933490  0.9999968958917326
  0.4564579382052628  0.8227070583204732 -0.0000030840474579
  0.3033954631843518  0.9075287862201182  0.4999968990308781
  0.3955232748275659  0.7610731386121427  0.4999969313523142
  0.1194599235786958  0.5104736667482849 -0.0000030753041782
  0.0479867397499035  0.6755077013209432 -0.0000030743986560
  0.4743584399237337  0.6044237187009625  0.4999969403669366
  0.4113292046509744  0.6566702490459512 -0.0000030540736700
  0.0387698658703053  0.8949605495198517  0.4999969047268621
  0.4385740653728323  0.9286436268007271  0.4999969262542183
  0.2150638231685501  0.8284512874113511 -0.0000028391924128
  0.2108726212202938  0.5855257105293556  0.4999968775719586
  0.1193630623689120  0.7372014538292605  0.4999968554968740
  0.0714671796920091  0.5768866550309383  0.4999969582298054
  0.2583523716439269  0.7454838992887851  0.4999970980909961
  0.0926805716291221  0.8343442403528336 -0.0000031020959956
  0.7948594053712763  0.1586073633727026 -0.0000030796301362
  0.8760779707888408  0.0024525775183426  0.9999969219232924
  0.7547596920938693 -0.0126139320467105  0.9999969252617833
  0.9587518550883735  0.3524761408198444 -0.0000030645873160
  0.7706310864259962  0.3728860867509115  0.4999969481366870
  0.8544987444574319  0.2235962200598850  0.4999969455063809
  0.6228107734044255  0.0048370399632257 -0.0000030649163280
  0.5407176090270114  0.1700611308522979 -0.0000030588073830
  0.9359436307909654  0.0730738352474756  0.4999969476904564
  0.9204928176416300  0.1724447629270948 -0.0000030641641587
  0.5562596970591790  0.4556136936056263  0.4999969349476100
  0.8970111573851702  0.3976149792724270  0.4999969553645328
  0.7121483999546800  0.3244069605661523 -0.0000030656793727
  0.7304571886475485  0.1952433918660917  0.4999969381351179
  0.6457052457315553  0.3258776808395570  0.4999969359787046
  0.6052018757450084  0.1322520732886762  0.4999969251325551
  0.5802826852925526  0.3418264205469433 -0.0000030487668102
  0.7990629914091809  0.6590552560757574 -0.0000030812510558
  0.8778322910231797  0.5041851367277099  0.9999969300217172
  0.7532852887054248  0.4914477350904600  0.9999969244652087
  0.9694965915394101  0.8298708796381570 -0.0000030755372050
  0.7789826783050513  0.8723732958714363  0.4999969409952968
  0.8606015555803112  0.7243458454773936  0.4999969459864347
  0.6191385347710184  0.5078479798585647 -0.0000030658185125
  0.5358292887247550  0.6696625097152091 -0.0000030659366352
  0.9375964388657666  0.5670553794668844  0.4999969478070654
  0.9232693544797338  0.6713827072691687 -0.0000030762292044
  0.5647301171247029  0.9550933879395888  0.4999969239974972
  0.9108381332428175  0.9009285808728905  0.4999969344042203
  0.7148771352136712  0.8229008788041206 -0.0000030740039678
  0.6882027147387153  0.5111978164737556  0.4999969497984106
  0.6458736383691268  0.8156277344523236  0.4999969300265579
  0.5999538269809022  0.6343945601207673  0.4999969391466761
  0.7347563953118259  0.6940718773019746  0.4999969475382409
  0.5806481004785854  0.8381266890058139 -0.0000030705259100
  0.3329198053719358  0.8092576240315018 -0.0000030877496394
  0.3482489979926887  0.5985301052788575  0.4999970141625535
  0.0006668210984654  0.5182040460580251 -0.0000030695072491
  0.1691189628355960  0.6691388212756130 -0.0000031528679179
 -0.0124229779202121  0.7280132108065968  0.4999969443744908
  0.1653812537195078  0.8979508954275707  0.4999971104686360
  0.8387662751867329  0.3295359555464908 -0.0000030634383097
  0.8099171874062890  0.0475089654536697  0.4999969419435093
  0.4962730651125620 -0.0018334080042347 -0.0000030800362883
  0.6675935750343077  0.1648408159038685 -0.0000030667892438
  0.5247162769102409  0.2802351348278102  0.4999969334077749
  0.8434982441008646  0.8292815698575247 -0.0000030784830326
  0.8130265928605616  0.5471387895186648  0.4999969532960880
  0.4914113704518888  0.4991377700329344 -0.0000030557535225
  0.6672286816214672  0.6652540607927728 -0.0000030588587672
  0.5212588825077347  0.7807151496225998  0.4999969276897402
  0.6890304547019873  0.9996548213653312  0.4999969311283817
  0.3285526225503476  0.3202159195383006 -0.0000030741463718
  0.3452583856154147  0.0851479282214355  0.4999968518674698
  0.0053921315690939  0.0060593286769787 -0.0000030614779656
  0.1691065423763974  0.1620094508560026 -0.0000030818847235
 -0.0082627386378723  0.2393012096042805  0.4999969987839436
  0.1642793453029191  0.4101953939641518  0.4999969724107406
