POSCAR file written by OVITO            
   1.0000000000000000     
    25.0855851991628604   -1.5161976561249471   -0.0000044537575357
    -1.0732296173543872   18.3825253052899349    0.0000020636923754
    -0.0000008661897064    0.0000005141724502    4.8963748814834736
   Mg   Nd
    87     6
Direct
  0.2986557127282746  0.1765450269870832 -0.0000021451325866
  0.3888436309519534  0.0077234257374129  0.9999981772957773
  0.2581183879316624  0.0082012010171941  0.9999969951373978
  0.4757772989446425  0.3393523308761094 -0.0000018031353623
  0.3051395743267598  0.4371954019842302  0.4999974237397037
  0.4006954145717325  0.2663718360681206  0.4999979832391381
  0.1280005656133923 -0.0106864272952922 -0.0000029168634122
  0.0464453134182338  0.1570730704588369 -0.0000033498321372
  0.4656754741159825  0.0745349480524510  0.5000001905632270
  0.4268569858553157  0.1766058646041201 -0.0000022591765367
  0.0431885389020095  0.4148102208012579  0.4999965542320388
  0.4274847115426073  0.4337264000656305  0.4999973614747253
  0.2182035835310495  0.3325263441697852 -0.0000030498836633
  0.2090953231416034  0.0680919417723580  0.4999972638683465
  0.1309373153480791  0.2460525552110219  0.4999968593957088
  0.0828172144851387  0.0746034377594760  0.4999968328274307
  0.2596991096828512  0.2543840277712295  0.4999972975838009
  0.0893096626972203  0.3283403448793568 -0.0000026887550016
  0.2930247322914872  0.6770472149349991 -0.0000031306220020
  0.3816860025889603  0.5236419958812645  0.9999975191424798
  0.2555643737337697  0.5051684055422327  0.9999976752223462
  0.4605652290308567  0.8626298607020663 -0.0000037248850084
  0.2858792260463437  0.9214724065284187  0.4999972843107619
  0.3722757353525102  0.7624286521430238  0.4999968444803502
  0.1273048759008074  0.5037125193091095 -0.0000033903803330
  0.0424013651772402  0.6591621067258446 -0.0000029646479891
  0.4615460861079497  0.6034487537504858  0.4999972931529019
  0.4196172823404352  0.6908708117014833 -0.0000023973063583
  0.0389417978818521  0.9013363419968554  0.4999969295843043
  0.4072638384215546  0.9225840716162642  0.4999975060084445
  0.2077733459071330  0.8387538180107414 -0.0000028824208833
  0.2119997289043133  0.5901409757293500  0.4999967855210237
  0.1199837826937308  0.7440871438228798  0.4999971112782671
  0.0862196549926476  0.5773946643687849  0.4999969244919822
  0.2470238776969624  0.7558025890747938  0.4999973091343243
  0.0792448085059330  0.8269765139178057 -0.0000035765483037
  0.7833203946422830  0.1618785396029846 -0.0000037111853765
  0.8628335375129783 -0.0038931762448453  0.9999964254751612
  0.7391986385053056 -0.0018555564736453  0.9999959653202367
  0.9610599252409049  0.3285288063008410 -0.0000035608293165
  0.7968499271024369  0.4126756144751439  0.4999970074039837
  0.8780598373897409  0.2373911893695196  0.4999965712437361
  0.6160960150557570  0.0133883379533413 -0.0000085378120566
  0.9405978387915692  0.0722411907645661  0.4999967603216329
  0.9179138406443131  0.1581590876355633 -0.0000029292385728
  0.5501820561842946  0.4106922663247821  0.4999981103083694
  0.9203348202859809  0.4028606031345626  0.4999966898712702
  0.7137669115605233  0.3196195266474858 -0.0000020792840151
  0.6982369415242466  0.0941198827263599  0.4999940919406617
  0.6438119990049282  0.2431589336318664  0.5000001813472409
  0.5810287757831302  0.0991624392392980  0.4999890848039668
  0.7622872380119654  0.2499215060993986  0.4999969647344073
  0.5925759124830614  0.3171297778651139 -0.0000018048591734
  0.7904587491787484  0.6603282883167431 -0.0000035065475795
  0.8763689546446760  0.4880585751683335  0.9999969332441112
  0.7515597131638776  0.4919270180323947  0.9999960944124064
  0.9537566258836054  0.8171721394969568 -0.0000032353504381
  0.7840565103279261  0.9119694675586698  0.4999957209122687
  0.8719424450507661  0.7396244651429652  0.4999966479135152
  0.6267871504189942  0.4919801635453846 -0.0000025724086902
  0.5424556941850374  0.6763963734732445 -0.0000033396508048
  0.9584613731477201  0.5703814740278863  0.4999969503280565
  0.9159332404915704  0.6527370980596747 -0.0000040399178724
  0.5358349685194542  0.9388158751487556  0.4999941916210837
  0.9116426077811096  0.9063201556115907  0.4999964044509571
  0.7040884829926359  0.8307494063441221 -0.0000046255948591
  0.7088753273952428  0.5768666435814592  0.4999967577278459
  0.6222764427186075  0.7519970922267539  0.4999959529927994
  0.5844999716506626  0.5825793624893001  0.4999967814662473
  0.7467362763718161  0.7440181559376945  0.4999958409112674
  0.5813980344453433  0.8441594631016957 -0.0000038631058071
  0.3330771801975098  0.8448264743202053 -0.0000026152016432
  0.3363464098655263  0.6011546979048906  0.4999977707654396
  0.0006625021546711  0.4953883351760431 -0.0000030776446795
  0.1677487652488322  0.6717653900841902 -0.0000027904804907
 -0.0040442008511110  0.7359495953954264  0.4999961457177313
  0.1623483077682323  0.9058215118748544  0.4999965341159084
  0.8368944238003535  0.3227841363909119 -0.0000031336444597
  0.8175457018721156  0.0790103443314083  0.4999968510343482
  0.5192110184869045  0.2373873983325711  0.4999978324042536
  0.6731816418943286  0.4085794976141215  0.4999967317099189
  0.8299137851243960  0.8285404600327624 -0.0000040008175247
  0.8341384435921246  0.5759454250991355  0.4999958567415945
  0.5038391264992104  0.5080420957773504 -0.0000028221227029
  0.6654180300336848  0.6621537869779056 -0.0000038046754513
  0.4983612080486179  0.7709637529920995  0.4999971404870400
  0.6597474981981447  0.9240376021158718  0.4999949206899412
  0.3441668747517016  0.3418248837577960 -0.0000023745711738
  0.3415458554064330  0.0980251156537728  0.4999979730814517
 -0.0045900779231460 -0.0056214440209822 -0.0000032217041647
  0.1722236017474274  0.1650414202108344 -0.0000029573838021
  0.0063067159026888  0.2368743413205960  0.4999966738161584
  0.1740673927270972  0.4125866546655288  0.4999969346206332
