SCAR file written by OVITO              
   1.0000000000000000     
    25.5341894355163674    1.8185227406851698    0.0000021406085719
     1.2837048579790140   17.2144825851338759   -0.0000020552453600
    -0.0000006266195492    0.0000006677293375    5.1822117094320799
   Mg   Nd
    88     6
Direct
  0.3076353979884334  0.1679565782190065 -0.0000030529628279
  0.4044849309896719 -0.0052452477613250 -0.0000031402250614
  0.2721055985190517  0.0018600432630522  0.9999968794386496
  0.4650665758861676  0.3368162336070860 -0.0000032193741685
  0.2774555919300830  0.4208242316310256  0.4999968690779003
  0.3828390282655077  0.2359377992473655  0.4999968309374340
  0.1469614552394762  0.0003775051481945 -0.0000031201390553
  0.0569817642800623  0.1810011563299624 -0.0000031177555395
  0.4629376384351148  0.0582568741506513  0.4999968719323708
  0.4313470635370339  0.1615236090349612 -0.0000031580581143
  0.0198717560270305  0.4263764475650341  0.4999968993705445
  0.4051283720038361  0.4072340039184753  0.4999968094914180
  0.2120076269590072  0.3482664326659123 -0.0000031336609630
  0.2099342926298330  0.0566395440884585  0.4999968877301476
  0.1211455985228544  0.2437795029956936  0.4999968699607873
  0.0868991536634629  0.0767451531418920  0.4999968754273086
  0.2513992129447657  0.2478471621612819  0.4999968464642383
  0.0836974647038681  0.3478507662519072 -0.0000031107276573
  0.3045338487555238  0.6798294820362671 -0.0000031396482188
  0.3850841557686350  0.5085820429247296  0.9999968466411480
  0.2521278139883593  0.5151478304214198  0.9999968291268575
  0.4808160226479317  0.8334274915446134 -0.0000031489339881
  0.2863826830629307  0.8967021291948332  0.4999969011918424
  0.3650721951851718  0.7322515961923731  0.4999968877956862
  0.1299840998956131  0.5294831407128715 -0.0000031531059785
  0.0529328658077057  0.6894896124107078 -0.0000031536163341
  0.4452544853254740  0.5683009211347123  0.4999968715336976
  0.4310478737874977  0.6722227645632263 -0.0000031387598217
  0.0353165653975985  0.9024438847437920  0.4999968971315230
  0.4140846248228956  0.8933306629187899  0.4999969103311167
  0.2271373385756300  0.8425540398155472 -0.0000031356778445
  0.1914095635979509  0.5837509625476490  0.4999968904017570
  0.1125870831827545  0.7404392141347974  0.4999969017283580
  0.0655968447535903  0.5830048392607972  0.4999969049203937
  0.2389407526400062  0.7374539816033566  0.4999968866219901
  0.0987691183651472  0.8473877922365739 -0.0000031405908417
  0.8019091040013783  0.1845451413103427 -0.0000031002494583
  0.8849126334368974  0.0224384575333760  0.9999968836077979
  0.7657238244711208  0.0127057460290522  0.9999968840166200
  0.9618679994174966  0.3658713850626810 -0.0000031310253108
  0.7721048390865016  0.4054846164048214  0.4999968908176803
  0.8601972230620453  0.2456085552592573  0.4999968941082458
  0.6462857038596471  0.0017593670542975 -0.0000031216793631
  0.9411396564781388  0.0864876000239158  0.4999968945270937
  0.9268000568313870  0.1902573674620946 -0.0000031071128784
  0.8978649628914340  0.4140958043885917  0.4999969054448741
  0.7144358801390025  0.3437990473235696 -0.0000030928346756
  0.6989213068994070  0.0664064564955173  0.4999969148797104
  0.6183272983499981  0.2297944426775042  0.4999969619126229
  0.5803158124284921  0.0650703224062668  0.4999968734509272
  0.7370610573085198  0.2381701803300193  0.4999969051687740
  0.5864969835218464  0.3330289594249876 -0.0000030307392063
  0.8062831444952508  0.6824882130558707 -0.0000031268771331
  0.8839794380342649  0.5237417943900760  0.9999968685508289
  0.7600546907200445  0.5131022201466036  0.9999968888290335
  0.9739508380562363  0.8485287636300440 -0.0000031413944708
  0.7829663107598541  0.9062778861679466  0.4999969094209715
  0.8620956403491864  0.7452563946502438  0.4999969041418099
  0.6350298655222785  0.5057070500757335 -0.0000030925268724
  0.5569538768474471  0.6690411438491527 -0.0000031245450694
  0.9385152005330893  0.5828720339135697  0.4999969028716643
  0.9290390969210862  0.6895475292917813 -0.0000031470329737
  0.5371758322382375  0.8929026863208336  0.4999968944525344
  0.9115072769986179  0.9167090563320449  0.4999969047268978
  0.7273591921074225  0.8419429488276625 -0.0000031246515630
  0.6919374496814646  0.5653998624201120  0.4999968884995716
  0.6138380857474487  0.7286882765231388  0.4999968831748464
  0.5679609671296617  0.5617056936619933  0.4999968847627783
  0.7378207934073402  0.7348823166384183  0.4999968954006519
  0.6042468903336548  0.8357837529608845 -0.0000031369146363
  0.3534556865999011  0.8422165006805243 -0.0000031462078894
  0.3206316612563605  0.5733198395335903  0.4999968649593265
  0.0101114497600730  0.5279647993977148 -0.0000031525046628
  0.1797148064875391  0.6882172175170489 -0.0000031508894617
 -0.0142407294290008  0.7417054735396778  0.4999969145917651
  0.1565512522172647  0.8993790170365393  0.4999968901109482
  0.8418054957626047  0.3522705332193664 -0.0000031172225003
  0.8184200900449853  0.0761153587919864  0.4999969082107769
  0.5264116580728891  0.0036244589007861 -0.0000031471955523
  0.6785696314399456  0.1731477508698844 -0.0000030692210266
  0.5018592914717471  0.2325681770904319  0.4999967232381005
  0.6458298627149369  0.3989889617036801  0.4999969079640620
  0.8498161564127490  0.8522365323541344 -0.0000031353756820
  0.8155471982206116  0.5732050118376724  0.4999968947100295
  0.5108943292948398  0.4974890400072683 -0.0000031134959336
  0.6818286886966409  0.6740055462321107 -0.0000031195507773
  0.4899130188149392  0.7282868583455701  0.4999968914068794
  0.6589882461775811  0.8958132382784296  0.4999969017445811
  0.3360416459248657  0.3357624574125860 -0.0000031449104966
  0.3356278542896750  0.0722548738483611  0.4999967816548749
  0.0134074195924722  0.0217642895828718 -0.0000030967728656
  0.1821733153347810  0.1744602733331166 -0.0000031064097290
 -0.0038640418822668  0.2482188885973812  0.4999969072401806
  0.1520829245722394  0.4115772887912216  0.4999968717238728
