POSCAR file written by OVITO            
   1.00000000000000     
    25.6336045123013783    0.5489206351218971   -0.0000088883189948
     0.4142528301777252   16.9957597155650895   -0.0000005042063102
     0.0000008202777726    0.0000002969214125    5.1441010655757724
   Mg   Nd
    88     6
Direct
  0.2999294276030088  0.1545180476218832 -0.0000031685019689
  0.3861695051645678 -0.0024993343571070 -0.0000032051301191
  0.2619778613163368 -0.0131571349562258 -0.0000031967903317
  0.2871365664186992  0.4351529669263016  0.4999967952497223
  0.4525702398563766  0.2769096473636360  0.4999968103402856
  0.1407554196628664 -0.0280929840813750 -0.0000031615330043
  0.0510520732016852  0.1602777206746137 -0.0000031443900297
  0.5109156161890067  0.1080045899646106  0.4999967922580220
  0.4494313586199266  0.1680196328448403 -0.0000032411779375
  0.0337107123330635  0.4416791236968188  0.4999968347883772
  0.4029018378324052  0.4437490225181134  0.4999967799026367
  0.2207872253292505  0.3367116116687803 -0.0000031857485790
  0.2405922829635045  0.0826040077445257  0.4999969214508936
  0.1176244618712168  0.2461939719201637  0.4999970070097166
  0.1126811615518798  0.0707822283128770  0.4999969160902616
  0.2594354079308062  0.2569619946854741  0.4999968386896439
  0.0802161847079313  0.3316978350599996 -0.0000031674575044
  0.2775133292200940  0.6658400251548635 -0.0000031812322787
  0.3437896041385951  0.5119368350819075  0.9999967990210977
  0.2249123943535636  0.5053463221933265 -0.0000032017119778
  0.4564752474580132  0.8329858718130064 -0.0000032160273623
  0.3272712545409332  0.9378212000161272  0.4999968017521341
  0.3965915112362242  0.7764344783140329  0.4999967936497884
  0.0940731599715788  0.5010414893167950 -0.0000031724667245
  0.0168397865822924  0.6423622529337610 -0.0000031640527351
  0.4616525748461983  0.6069296059947923  0.4999967701176271
  0.4008346168331186  0.6694044583095551 -0.0000031889776674
  0.0779211303375237  0.9060497979806652  0.4999967810212475
  0.4494630037546732  0.9452835178617387  0.4999967878402458
  0.2076966276608757  0.8146370281540815 -0.0000031764849117
  0.2185631446781974  0.6010963541570654  0.4999968314238800
  0.1495080561173745  0.7572476807194622  0.4999968521165699
  0.0875770366962328  0.6020793274725942  0.4999968736359815
  0.2739518991059965  0.7690816048622213  0.4999968197399937
  0.0818756058396104  0.8036566711115936 -0.0000031571716365
  0.8171757035853736  0.1473701986695248 -0.0000031506691313
  0.8833606031150688 -0.0274994636301009  0.9999968706015222
  0.7609928515075570 -0.0196331698497622  0.9999968289435192
  0.8946288373088080  0.3140097421575377 -0.0000031665034469
  0.7715554300028902  0.4245314334877737  0.4999968133748097
  0.8401866928989619  0.2552115931466248  0.4999968440070193
  0.6368320023266296 -0.0102982044410531 -0.0000031768870697
  0.5750843409655567  0.1597157706587063 -0.0000031702732767
  0.9954439784279684  0.0790943574238667  0.4999968850697851
  0.9355534943346457  0.1452465694369197 -0.0000031206618511
  0.5236134268706227  0.4361812974846316  0.4999967724468560
  0.8984269967690687  0.4230992343311619  0.4999968447189136
  0.6421033883221968  0.3223121596123799 -0.0000032020268735
  0.7595858485353646  0.0882933705359740  0.4999968179969321
  0.5802902783642404  0.2687092400711500  0.4999968055214925
  0.6364644696659810  0.0982239652105775  0.4999968117130441
  0.7082248076326644  0.2600951324163913  0.4999968087766307
  0.5120531166372269  0.3291162429427858 -0.0000031996184910
  0.7680622231489189  0.6466326608918663 -0.0000031712212413
  0.8331687368748925  0.4795533901124603  0.9999968311742482
  0.7072273987861406  0.4846902380864927  0.9999968021831317
  0.9497743071960463  0.8048583073563750 -0.0000031378843534
  0.8204695615560658  0.9176927886651695  0.4999968500421145
  0.8879571122777815  0.7497287017284638  0.4999968514921215
  0.5833170783016726  0.4913224993742824 -0.0000031846294710
  0.5223644076758069  0.6632836098659717 -0.0000032036316765
  0.9569681104309367  0.5890306624215023  0.4999968463948941
  0.8926559058287867  0.6400825490711241 -0.0000031565853082
  0.5747874875663543  0.9362005059463629  0.4999968065345531
  0.9443268138650864  0.9118671341001812  0.4999968661039688
  0.7025404134084413  0.8175050607090496 -0.0000031698731811
  0.7064359994624432  0.5928781863133461  0.4999967976160524
  0.6403839676583657  0.7640989100256179  0.4999967833930746
  0.5834338849710320  0.6006683171742000  0.4999968019533200
  0.7635713902642942  0.7556008775546531  0.4999968507939175
  0.5795649362969229  0.8266298375107020 -0.0000031978360922
  0.3313093342198782  0.8281656443821129 -0.0000032031557003
  0.3409698498761110  0.6128442031337050  0.4999967954858484
 -0.0343800112080989  0.4590831628830216 -0.0000031522381530
  0.1516199865039692  0.6523655756351178 -0.0000031829504302
  0.0153008712065304  0.7564926850219317  0.4999968427192321
  0.2022892839871465  0.9190885031638459  0.4999968203192072
  0.7678750489030060  0.3170265045337980 -0.0000031976144614
  0.8803067652421945  0.0796106961260003  0.4999968387620968
  0.5108398486646403 -0.0004115343291595 -0.0000032077925980
  0.6972040009763507  0.1516266554109796 -0.0000031890293100
  0.6471752066462514  0.4301593343958191  0.4999968135302608
  0.8255115717741921  0.8097894907258101 -0.0000031622624956
  0.8311475119203449  0.5877362593483765  0.4999968319322533
  0.4612256566615644  0.4974806192184620 -0.0000031978028089
  0.6450010003310258  0.6545748359276349 -0.0000031967817590
  0.5176385218145759  0.7723121880168425  0.4999967706929163
  0.6982928141337055  0.9266946168806285  0.4999968099960488
  0.3584182658249913  0.3203549859451124 -0.0000031698507106
  0.3728955263025723  0.1263452593821330  0.4999968156375358
  0.0147362344549664 -0.0235098730562131 -0.0000030902741650
  0.1762752544617333  0.1652473737086401 -0.0000033504746959
 -0.0159356101732276  0.2665357666624867  0.4999968429988789
  0.1597103047110806  0.4200703352545347  0.4999968293590892
