SCAR file written by OVITO              
   1.0000000000000000     
    25.3498735026484283    1.5728510891737597   -0.0000015966666412
     1.1219293455632082   17.3006158188496109   -0.0000007944980850
    -0.0000005134370673    0.0000015982583666    5.1672136531543087
   Mg   Nd
    88     6
Direct
  0.3013133239260570  0.1677658536534868 -0.0000033499812640
  0.4160176046254878 -0.0081513638166423 -0.0000031706988283
  0.2764930949281988  0.0033115193081666 -0.0000031451944762
  0.4658338882412068  0.3263917608224621 -0.0000031134406878
  0.2798983275070436  0.4237173198073729  0.4999969544997590
  0.4021292075934360  0.2431538228536224  0.4999970651826383
  0.1490856079447542  0.0018227944412839 -0.0000031686240904
  0.0540498836374323  0.1843896065393991 -0.0000029229266599
  0.4720130520135684  0.0697423838384859  0.4999969531056167
  0.4212723290084546  0.1600871954623820 -0.0000032532683464
  0.0207787388333030  0.4283868884511153  0.4999967427094577
  0.4016080186012340  0.4142310291427594  0.4999968481891496
  0.2112774485747099  0.3466740554753831 -0.0000031288012203
  0.2159275460167520  0.0631110241582274  0.4999966666028280
  0.1208400027837322  0.2502256392470780  0.4999965116542582
  0.0898790019804397  0.0814511770790772  0.4999967689993960
  0.2531013499111688  0.2497123001072625  0.4999968628452250
  0.0836555913675895  0.3508150576521577 -0.0000030592733739
  0.3037635918169362  0.6821469388763337 -0.0000032007821848
  0.3802907713632383  0.5102412944471459 -0.0000031714705874
  0.2506433580980281  0.5144725825377712 -0.0000031893471054
  0.4818011375708867  0.8282183583974357 -0.0000031354489067
  0.2903711728896950  0.9025239096734837  0.4999968031612897
  0.3665374376241377  0.7362821607255355  0.4999968289844452
  0.1289251678679584  0.5321463000748756 -0.0000031051290845
  0.0538183287455351  0.6910775058891675 -0.0000031816218854
  0.4455844752160256  0.5689280219571489  0.4999968083155168
  0.4300376787217205  0.6706871353298064 -0.0000031308410320
  0.0378593772014194  0.9051190446159130  0.4999967462337710
  0.4171536205025018  0.8955560438777732  0.4999968856112278
  0.2294168728177290  0.8461426775517875 -0.0000031556612349
  0.1926342677237878  0.5884847428734719  0.4999968100528284
  0.1138292789379659  0.7436130189015050  0.4999967575613916
  0.0662622022293423  0.5852967121812760  0.4999967745072773
  0.2403844868956725  0.7431062079108833  0.4999967839346816
  0.1004596866144450  0.8495220029468177 -0.0000032015293334
  0.7972613980956156  0.1815616888287704 -0.0000031678112969
  0.8846010162880319  0.0221803971276642 -0.0000031878168232
  0.7648184028753170  0.0093488377672982 -0.0000032617325284
  0.9615350147636469  0.3666913396153261 -0.0000030529698616
  0.7718000021907337  0.4028037791732592  0.4999968060450382
  0.8574212335106636  0.2441400885948309  0.4999968220824303
  0.6423079451464334 -0.0046291637535162 -0.0000032036395353
  0.5454503327718736  0.1512193082644679 -0.0000031621589115
  0.9419773021510548  0.0873762171014087  0.4999967995857044
  0.9252605629852164  0.1891826581231465 -0.0000030875253703
  0.5241789549854114  0.3925434522211269  0.4999968497562233
  0.8975958821008113  0.4139727388093017  0.4999967725800040
  0.7152847917439445  0.3411591875809186 -0.0000031616262753
  0.7007282064323390  0.0623249819569995  0.4999967671275102
  0.5990982247413961  0.2276955183357413  0.4999967994214494
  0.5864038873577889  0.0524585589101514  0.4999968087307683
  0.7297420017848120  0.2350833710161341  0.4999968212926533
  0.5892690625899952  0.3329475458142093 -0.0000031689711704
  0.8071548744932161  0.6809761792724661 -0.0000032255110298
  0.8839446090891351  0.5228918011201683 -0.0000031915784978
  0.7602276030566089  0.5108258758713028 -0.0000032146779842
  0.9758940788882310  0.8487188640930415 -0.0000032149857362
  0.7852440451357354  0.9045872422487057  0.4999967565924458
  0.8632465294317304  0.7451535635430049  0.4999967460022396
  0.6349605305934296  0.5030291729570695 -0.0000031417858779
  0.5566903217057850  0.6653285520858364 -0.0000031155745607
  0.9387902844604702  0.5836073062568180  0.4999967419154995
  0.9296937574347842  0.6899524668708436 -0.0000032272219978
  0.5378614123655416  0.8959851007701849  0.4999969138701222
  0.9136765446184071  0.9177758221393568  0.4999967874125277
  0.7282756091999624  0.8395074291927982 -0.0000032130091772
  0.6926398625913319  0.5631116256314539  0.4999968139839788
  0.6148307840152405  0.7256106382012039  0.4999968630464499
  0.5689968164296920  0.5592976089036463  0.4999968374359172
  0.7389127943719163  0.7327788512533739  0.4999968005702466
  0.6044273746661721  0.8299640748894803 -0.0000031323198674
  0.3554677959642665  0.8444801077645999 -0.0000031379692970
  0.3201709184413710  0.5797846914300259  0.4999967894687481
  0.0091162121327540  0.5300721886673332 -0.0000031794119567
  0.1800985596978173  0.6915921651201206 -0.0000032123462941
 -0.0127980188215552  0.7429644015173880  0.4999967770826358
  0.1600367995343934  0.9034524086685992  0.4999967527220758
  0.8414653663807758  0.3501622655145059 -0.0000031496154317
  0.8185649440784092  0.0751914490622986  0.4999967768404319
  0.6709508954327187  0.1695645798773685 -0.0000031984618420
  0.6474483954904652  0.3943872175308149  0.4999968546021633
  0.8513164420574282  0.8511297516149520 -0.0000032646886843
  0.8159283920777624  0.5720635152673909  0.4999968212037481
  0.5076584293795202  0.4985770415256728 -0.0000031660230064
  0.6825141088172765  0.6707444134589224 -0.0000031695235530
  0.4914342261447892  0.7276016989183364  0.4999968454721471
  0.6609202387778826  0.8916510005178941  0.4999967936925707
  0.3353758814418551  0.3315636227154248 -0.0000033505658528
  0.3453295362405422  0.0795353873892550  0.4999973009701097
  0.0142627649749213  0.0225752966752504 -0.0000031129743182
  0.1780052091838452  0.1764357643562058 -0.0000027033625184
 -0.0046841954239750  0.2505543203260923  0.4999964418973420
  0.1548217166026151  0.4161585883023891  0.4999966973455125
