POSCAR file written by OVITO            
   1.0000000000000000     
    25.3536270051358379    0.6598176550452354    0.0000010072723118
     0.4970383484928357   17.1936475983430626    0.0000019513775877
     0.0000003511529897    0.0000004437348570    5.1466513931930971
   Mg   Nd
    88     6
Direct
  0.3029657677478039  0.1518099797595677 -0.0000033641849997
  0.3823813124396664 -0.0126610839822172  0.9999967967272275
  0.2586694727906055 -0.0144838222527416  0.9999968377381291
  0.5066726562163634  0.3241000959041768 -0.0000030552688742
  0.2847518199705150  0.4340265471625850  0.4999969459761904
  0.4477033257910958  0.2693081704394494  0.4999969312541944
  0.1333273526492074 -0.0203792202003962 -0.0000030573850487
  0.0541317469268579  0.1733016488909556 -0.0000030912461171
  0.5088160584951823  0.1011546271017885  0.4999969211108232
  0.4453682739186732  0.1628031146611893 -0.0000031563999646
  0.0270758648229905  0.4318720448374192  0.4999969496911860
  0.4015364554292792  0.4400430191451207  0.4999969298839977
  0.2243349820763789  0.3357410498474567 -0.0000030721675059
  0.2386891862546345  0.0804474421079317  0.4999974055219736
  0.1251082098219269  0.2432636104549508  0.4999976986556436
  0.0956298698534701  0.0787695408902796  0.4999970358002612
  0.2630008428693230  0.2531692394122124  0.4999970339436104
  0.1007321436132862  0.3289723770489330 -0.0000033227862932
  0.2711649007595530  0.6643523472612098 -0.0000030744802313
  0.3396396075357017  0.5091573455451740  0.9999969374734978
  0.2175751712192229  0.5057278726096859  0.9999969433499519
  0.4525009698511896  0.8252566601918397 -0.0000030786403323
  0.3226037223488855  0.9305230150742347  0.4999969870853259
  0.3919653639634240  0.7701706886864293  0.4999969443484167
  0.0811835670531818  0.4996133484712931 -0.0000030669885700
  0.0160457921001259  0.6579507918936628 -0.0000030593576569
  0.4591000731892446  0.6016938109276393  0.4999969351556358
  0.3969033009172071  0.6642183843301632 -0.0000030793953992
  0.0690864221084814  0.9140317123621972  0.4999969717778426
  0.4468361888593074  0.9350372137204844  0.4999969474466089
  0.2010874178401117  0.8169608260274426 -0.0000030668837128
  0.2117675342699346  0.6016994349085805  0.4999969473076935
  0.1407556079358014  0.7602272234567649  0.4999969578706779
  0.0822889277895883  0.5960589795294993  0.4999969773411496
  0.2669987031057273  0.7673695930505149  0.4999969498564600
  0.0752012354780828  0.8194011522119353 -0.0000030696247911
  0.8143277026705520  0.1453509216568321 -0.0000030482955897
  0.8782631070368497 -0.0207924070576901  0.9999969500151301
  0.7560927843218076 -0.0207324892430163  0.9999969374048467
  0.9864110149607296  0.3501738280078979 -0.0000030069584699
  0.7768743295151340  0.4169908130401537  0.4999969365921603
  0.8406095245078176  0.2442884629103060  0.4999969268086061
  0.6321935926661140 -0.0143495527370829 -0.0000030449391297
  0.5715223347752788  0.1544708898050439 -0.0000030521291593
  0.9031650076119976  0.0812000175383596  0.4999969184503705
  0.9296501969787129  0.1666432774979840 -0.0000030170259910
  0.5233702967679198  0.4302981941527369  0.4999969262668046
  0.9056218011862580  0.4176142299616339  0.4999969442466297
  0.7581817696653674  0.3132440791218933 -0.0000030530719639
  0.6355456559620052  0.0920831220766923  0.4999969165712054
  0.7053306901773002  0.2524981547778043  0.4999969265268876
  0.6359677741462200  0.3180181023520784 -0.0000030551994404
  0.7657190324338179  0.6503320684968091 -0.0000030648960094
  0.8290148526084705  0.4891017505323820  0.9999969353950862
  0.7059493153878681  0.4836197806702284  0.9999969386800892
  0.9494831001710624  0.8201258353419549 -0.0000030753019208
  0.8204259833666490  0.9211346560535315  0.4999969372223019
  0.8873844720699507  0.7606380416712336  0.4999969461674333
  0.5820635568051679  0.4879400732880725 -0.0000030617724072
  0.5201584263246060  0.6579196509342178 -0.0000030636804445
  0.9569799962211588  0.6021998872173473  0.4999969640204845
  0.8884228903183244  0.6613459159177021 -0.0000030748751550
  0.5722873338442582  0.9299986144719647  0.4999969301602656
  0.9456916570936214  0.9159868681203902  0.4999969453429522
  0.6987240824275373  0.8165464487211087 -0.0000030597114298
  0.7087250955778005  0.5892486634417861  0.4999969232683661
  0.6387612155678618  0.7598802595682069  0.4999969259918791
  0.5833691532267795  0.5954449165282512  0.4999969291424174
  0.7629696739647110  0.7562338529956534  0.4999969234061906
  0.5756429231271147  0.8219568494851260 -0.0000030532284124
  0.3260767823317013  0.8228920254993866 -0.0000030887659645
  0.3358489993849991  0.6098255283976368  0.4999969250289547
 -0.0503862974132050  0.5094532259612762 -0.0000030732954453
  0.1427000580464307  0.6545278766883509 -0.0000030485959844
  0.0145351100879509  0.7590776691858317  0.4999969669951374
  0.1945878386155969  0.9219707996220661  0.4999969723653865
  0.8749823867356950  0.3235973782144534 -0.0000030453146437
  0.7632367859770515  0.0848608734662956  0.4999969220983597
  0.5057723951093323 -0.0055964515469209 -0.0000030558017617
  0.6938593300672616  0.1472380019305747 -0.0000030490730478
  0.5771836779494469  0.2614107942522748  0.4999969236486537
  0.6490583720964775  0.4242061734781427  0.4999969185027054
  0.8221928994254065  0.8171246515052720 -0.0000030738143889
  0.8347466226178537  0.5907481662443372  0.4999969356376507
  0.4591297043547138  0.4939445958467319 -0.0000030567305382
  0.6434773028984143  0.6516833088878846 -0.0000030557584273
  0.5148362966955625  0.7656668747469574  0.4999969387241524
  0.6965041043779598  0.9237747281844206  0.4999969238796513
  0.3581186029013082  0.3189940909425765 -0.0000030599303687
  0.3721867147998736  0.1127519126749870  0.4999973552179323
  0.0047502238919971  0.0083244643707846 -0.0000030490670653
  0.1787832635520091  0.1617909553114204 -0.0000039383654345
 -0.0113751273651832  0.2390557494375847  0.4999968884494992
  0.1573507443624384  0.4197663678927100  0.4999970588633004
