POSCAR file written by OVITO            
   1.00000000000000     
    24.5034279501571639    1.8606222555251617   -0.0000188160118042
     1.2940684632362551   17.5674635022479393    0.0000042916383203
    -0.0000041418215957    0.0000014262190282    5.1487306994383859
   Mg   Nd
    86     6
Direct
  0.2882207064237525  0.1406473889735776 -0.0000038635882869
  0.3768805460454709 -0.0484519597840439 -0.0000020257702142
  0.2551186180468319 -0.0179575948997641  0.9999975487506059
  0.4637875237158777  0.3005993356055939 -0.0000004478308766
  0.3020173584164280  0.4188656955085088  0.4999969013991293
  0.4054810011688277  0.2346118561061540  0.4999983542504617
  0.1305028717704135 -0.0026072801428494 -0.0000036298318609
  0.0301758026798140  0.2074341999299490 -0.0000055118730207
  0.4889940548018653  0.0786471284766746  0.4999992098393057
  0.4179380552927658  0.1348727968098082 -0.0000016397614628
  0.0102395602378418  0.4391138837605507  0.4999924299203890
  0.4354681872117877  0.4029757272380292  0.4999994212352886
  0.2013596433774821  0.3282432596849876 -0.0000050507820303
  0.2120411834543031  0.0702361636234461  0.4999967788156653
  0.1003788972492316  0.2665247891828611  0.4999950651498849
  0.0769153436308547  0.1026082558064530  0.4999952624683475
  0.2488022147578487  0.2403064396094634  0.4999975317703820
  0.0748025921520108  0.3631271730912530 -0.0000056178085257
  0.2952695489776115  0.6345685906644579 -0.0000010775515957
  0.3731246526820093  0.4713322670862116 -0.0000013282274511
  0.2442794019366544  0.4817581719196440 -0.0000046052837444
  0.4610863292139475  0.7934448196382171 -0.0000003367219609
  0.3137160022160681  0.8946661207395421  0.4999980690609929
  0.4028932189968180  0.7333700066879089  0.4999991675030734
  0.1207599187108256  0.5235757072441679 -0.0000042218666736
  0.0501772696317382  0.6900866697153386 -0.0000017069140601
  0.4896303600151133  0.5728130132555894  0.5000003554908586
  0.4214161373203279  0.6279668157299456 -0.0000004610814677
  0.0616739812931987  0.9340276483630749  0.4999935966027927
  0.4433888203346843  0.9003745097988292  0.4999993170915656
  0.2150829472752157  0.8195642599558934 -0.0000009948561484
  0.2173763621125752  0.5817469970350029  0.4999944341445327
  0.1371680591140496  0.7532365796521521  0.4999924766588636
  0.0705185512376473  0.5949224987869645  0.4999972052027528
  0.2687273515209769  0.7360590675113896  0.4999991785984999
  0.0876293987241519  0.8451088634269411 -0.0000067455492457
  0.7889945313603515  0.1640996538756800 -0.0000077313342918
  0.8684817639521517  0.0058077322098035  0.9999940022818256
  0.7441426547408585 -0.0037591944386416  0.9999954957557120
  0.9505472875224955  0.3859453226770378 -0.0000071078957907
  0.8056732866767253  0.2663392460235607  0.4999891942115216
  0.6198188944275597 -0.0166692133047249 -0.0000006988167584
  0.5438490665528005  0.1431160768033111 -0.0000003491548288
  0.8840996693739308  0.1064593129186575  0.4999935751602690
  0.9043438238982943  0.1906231051695321 -0.0000063155438662
  0.5772177763989312  0.4170808383479855  0.5000012370811674
  0.8620945492509774  0.4375578193583394  0.4999830444995959
  0.7173567314884943  0.3254390609839726  0.0000035991309817
  0.6674303230202037  0.2609344503094832  0.5000015858928439
  0.6165295834840741  0.0890625873972252  0.4999995808612719
  0.5905699342171273  0.3123958892865432  0.0000008133774419
  0.7986299579221763  0.6822332755381578  0.0000114325635660
  0.8729573150849992  0.5353083008536096  0.9999783958026548
  0.7572298423900090  0.4971757851922107  0.0000100994380102
  0.9605699017450398  0.8546652731133161 -0.0000041468285449
  0.8152386143229003  0.9443318321938029  0.4999931738644638
  0.8925827565585691  0.7868640121202294  0.4999854868243944
  0.6325924415280841  0.4793940215661634  0.0000024247931136
  0.5484453974898147  0.6356904408381102  0.0000008092468611
  0.9173181167494122  0.6023964672173462  0.4999808643843380
  0.9242492925817261  0.6969958619951555 -0.0000183725882458
  0.5697897039610729  0.9150845722730260  0.4999997298402537
  0.9398431522469832  0.9435550610870863  0.4999951169635877
  0.7043544358966831  0.8276097062010582  0.0000017995020195
  0.7152215402957156  0.4278705270878025  0.5000068619291577
  0.6545756453081126  0.7556330957118602  0.5000011677117623
  0.6241662886903284  0.5837260670524739  0.5000016081933766
  0.7739589614516013  0.7770644932480634  0.5000048726505110
  0.5825206073212901  0.8096223342796455  0.0000004072778788
  0.3373086587314593  0.7895193684751208 -0.0000013587441460
  0.3581253736160528  0.5758888056821745  0.4999991417473507
 -0.0019193418711641  0.5412740138499857 -0.0000094141525894
  0.1736939750885532  0.6667839692186691 -0.0000075783328072
  0.0129273022496581  0.7726552705403140  0.4999980407382194
  0.1866746419651039  0.9065602968021681  0.4999983431803083
  0.8387439118780757  0.3469387648133338 -0.0000155237696044
  0.7444721301360688  0.1009533364961387  0.4999946949836455
  0.4955040565467444 -0.0272505084760298 -0.0000004981039545
  0.6669201891726070  0.1539030983267151 -0.0000007851936365
  0.5368300636134585  0.2498397591026468  0.5000000452583309
  0.8296951742865900  0.8448572707372884 -0.0000077782130147
  0.7662972615716653  0.5950094975610408  0.5000094960422361
  0.5032900926754041  0.4671118856951774  0.0000005637566218
  0.6761719239252804  0.6511974409034933  0.0000021850562589
  0.5304148171153464  0.7421809514553527  0.5000003387050679
  0.6926181327132839  0.9312161702741982  0.4999989536627301
  0.3288695199409756  0.3019826003900674 -0.0000026720118419
  0.3499225378991386  0.0704437695040831  0.4999998910106657
 -0.0044746103499006  0.0382133666729510 -0.0000056723446957
  0.1602563670749675  0.1725913090754485 -0.0000043043181016
 -0.0442091778319915  0.2670138891329949  0.4999934615078779
  0.1615091741960759  0.4176755947878996  0.4999997328039625
