POSCAR file written by OVITO            
   1.00000000000000     
    25.0730591200041566    0.9464479491400697   -0.0000254157618884
     0.6745605155609710   17.3380967440049325    0.0000183757620246
    -0.0000053253768552    0.0000057696411514    5.1560548365456214
   Mg   Nd
    87     6
Direct
  0.2924705945091512  0.1640591986514576  0.0000007052177763
  0.3802925223586686 -0.0210428022607646 -0.0000032008345355
  0.2615033532198811  0.0007522160631093 -0.0000037007446618
  0.4666103679733960  0.3103425961106735 -0.0000041728498842
  0.2911459007013825  0.4389841536327190  0.4999970094558683
  0.4005783944165349  0.2513547849485435  0.4999958759074761
  0.1383851651022890 -0.0047182501585966 -0.0000024625992974
  0.0457624758770911  0.1774803379765669 -0.0000043082225836
  0.4733210985763547  0.0999667193913055  0.4999958476415328
  0.4151625640281372  0.1522938769722720 -0.0000030478747563
  0.0233975337182562  0.4245019121364770  0.4999972545613353
  0.4130992736554571  0.4260865628181992  0.4999962073612904
  0.2065703885320112  0.3343857046443321 -0.0000047127445194
  0.2112213549304470  0.0639171115016055  0.4999963426315859
  0.1180813970956370  0.2514288283840297  0.4999977059606706
  0.0832504502951748  0.0787128569607673  0.4999967110988270
  0.2515413604758847  0.2515244182483736  0.4999964422689190
  0.0805862946407602  0.3449349624755336 -0.0000025034279027
  0.2882864009048148  0.6569039108252103 -0.0000030249359884
  0.3619552499984437  0.5038868891977025  0.9999970801422523
  0.2382227372217011  0.4979202002836588 -0.0000030289226455
  0.4613591465802643  0.8134814219492825 -0.0000031132299212
  0.3005945376552187  0.9102362198679091  0.4999966813262703
  0.4039860100243728  0.7574158414592235  0.4999967973717062
  0.1188791769554329  0.5213762241703084 -0.0000028373567147
  0.0472676854366696  0.6832576226417253 -0.0000030328879237
  0.4811229112358114  0.5895073474943884  0.4999973320589661
  0.4147979329418353  0.6534283961524364 -0.0000030108389630
  0.0371204524982082  0.8999373640852711  0.4999967792167767
  0.4313972071628859  0.9301088859559162  0.4999952628138403
  0.2193869380986654  0.8390003378706069 -0.0000029619551830
  0.2068118324758797  0.5917362717910239  0.4999965288299375
  0.1149994026743061  0.7412843235556493  0.4999973912582698
  0.0672105040630499  0.5825090706289540  0.4999971967986186
  0.2563635419367552  0.7494306823364999  0.4999968576283501
  0.0939933669491820  0.8415311396111163 -0.0000029051978233
  0.7934819552572341  0.1639923831662701 -0.0000024917959298
  0.8759877730361918  0.0098504120680473  0.9999974657810162
  0.7560459619718544 -0.0104671325398770 -0.0000028582644819
  0.9580852489253774  0.3595935872876989 -0.0000025801233295
  0.7700666119664327  0.3838089372646050  0.4999972816134037
  0.8528588645236572  0.2306796699987488  0.4999974680192577
  0.6348794791581885 -0.0308866665971089 -0.0000033095123360
  0.5454747388253148  0.1322141503651821 -0.0000032536751356
  0.9354247301813406  0.0797702641788384  0.4999978410826378
  0.9197964620353565  0.1790196183005660 -0.0000024373993278
  0.5319995523313921  0.3877133507006553  0.4999966898628547
  0.8952952976246872  0.4041480418204268  0.4999975814102393
  0.7134155249217974  0.3181448722879751 -0.0000028862338801
  0.6496965506617743  0.3650438114529075  0.4999970015299112
  0.7251784212217851  0.2117127457459544  0.4999974305636744
  0.5886780311933169  0.3060836759077957 -0.0000031708933355
  0.7977709511960208  0.6624375333801626 -0.0000029977651809
  0.8759753754176451  0.5098792511809995 -0.0000027786453729
  0.7504972113476294  0.4898298004715788 -0.0000027325756726
  0.9695076366061246  0.8367582704558760 -0.0000026630825202
  0.7769001961926999  0.8854886245893976  0.4999969853782714
  0.8571038392899014  0.7315267549132684  0.4999970560238071
  0.6168904044935372  0.4803336371504566 -0.0000030732892158
  0.5389840619501218  0.6490229027358962 -0.0000023809898657
  0.9344976120669635  0.5733623945935918  0.4999974855052486
  0.9216273166984184  0.6784391555907362 -0.0000027257176111
  0.5719101116817159  0.0038691940563203  0.4999970556589453
  0.9099162532278690  0.9077179552965221  0.4999977503136599
  0.7191567674922182  0.8155015299981545 -0.0000029839988193
  0.6840737851915495  0.5350747171247854  0.4999971272735339
  0.6512376042260790  0.8594921607755084  0.4999968343821174
  0.6034413701131492  0.6798699194279378  0.4999971458642533
  0.7296018648190634  0.7083806366696243  0.4999971378534968
  0.5939590102586461  0.8012960875700905 -0.0000032767553579
  0.3381548784520355  0.8127200851489081 -0.0000034471955257
  0.3488379002589942  0.6032879284176785  0.4999969861164525
 -0.0003815095066113  0.5254882476879830 -0.0000025114063175
  0.1700948482536974  0.6818030616236308 -0.0000030679032963
 -0.0157590407790704  0.7337740820907547  0.4999970634501809
  0.1629927913653659  0.9006123546964655  0.4999973026849606
  0.8384323405568969  0.3353479059487210 -0.0000024744248158
  0.8095352733378343  0.0587290387025173  0.4999974306867169
  0.5054599992927843 -0.0295023680515341 -0.0000038654624976
  0.6688394756732176  0.1464396253967570 -0.0000029564480605
  0.5932249400764420  0.1981118260146278  0.4999967519499188
  0.8436103231203863  0.8361820005542573 -0.0000031487552221
  0.8098834120888039  0.5554064076790587  0.4999970632597510
  0.4878801564898718  0.4833042548615045 -0.0000030361906376
  0.6710135668081807  0.6438242133932377 -0.0000031737457001
  0.5281726831773594  0.8239457142693433  0.4999973499596002
  0.6884882665505754  0.0378524904433898  0.4999969954121880
  0.3326907082256254  0.3270811810018552 -0.0000031598310831
  0.3405824612690524  0.0886810629871347  0.4999938400845060
  0.0055020202088596  0.0127405673765301 -0.0000030328204172
  0.1694673385917433  0.1694764336702325 -0.0000032452283998
 -0.0092154597130134  0.2458254778307210  0.4999972577660886
  0.1612444441758535  0.4166903574931894  0.4999966057155878
