SCAR file written by OVITO              
   1.0000000000000000     
    24.7196083465465577    0.3805080236583017    0.0000006459368705
     0.2926090148652495   17.4338358772809485   -0.0000003950775668
     0.0000000423890386    0.0000000585231451    5.1502527771767568
   Mg   Nd
    87     6
Direct
  0.2905527561066687  0.1774917662320898 -0.0000032523635699
  0.3875420488797696  0.0072234727670508  0.9999967878771626
  0.2641177117447108  0.0058387226527924  0.9999968215505803
  0.4607088330774975  0.3849625666101479 -0.0000032136184219
  0.2840761617110449  0.4626786462374481  0.4999968208383234
  0.4054128874741673  0.2781211837982772  0.4999968045892353
  0.1387407960497242 -0.0124398053431845 -0.0000031700123472
  0.0333605258242057  0.1704197578272282 -0.0000031490159632
  0.4932715117423912  0.1552897871161611  0.4999968274117357
  0.4211299328537782  0.1911066725366437 -0.0000032176514366
  0.0311606043456496  0.4481335285542062  0.4999968314109274
  0.3934559438516974  0.4345684464298321  0.4999966808156687
  0.1988811868751596  0.3451288119939789 -0.0000031506480080
  0.2191479979989061  0.0905610280277585  0.4999968213697792
  0.1226008372654174  0.2644621636013265  0.4999968123878693
  0.0862019081756459  0.0923385767641716  0.4999968341031695
  0.2520578720696895  0.2697274396183806  0.4999968074408441
  0.0702656603136107  0.3435469246331825 -0.0000031652282886
  0.2939950081019789  0.6702685902161595 -0.0000031874300829
  0.3779231450016048  0.5278246698901604  0.9999967365736765
  0.2316008913857724  0.5149639347338762  0.9999968315090074
  0.4725320937485113  0.8707221296877065 -0.0000031535734439
  0.3287782766165185  0.9370652432478626  0.4999968285173694
  0.4140702411478197  0.8033352912157099  0.4999968393711722
  0.0947744988446646  0.5135719988177060 -0.0000031517433603
  0.0218947425930536  0.6637039836417102 -0.0000031709907959
  0.4803259808301089  0.5221236888424835  0.4999973329399843
  0.4288478048804872  0.6947780651929460 -0.0000031674840304
  0.0752995404436399  0.9209990950525733  0.4999968335795321
  0.4549924198697026 -0.0206600776530544  0.4999968229332554
  0.2161179644857854  0.8242604530558111 -0.0000031712614204
  0.2230293859434432  0.6174096973272047  0.4999968193409631
  0.1495960882780732  0.7686112604060886  0.4999968199993460
  0.0896430778981406  0.6115135166584543  0.4999968261305532
  0.2839185783619266  0.7727512113965248  0.4999968222803623
  0.0835140893517988  0.8245362578204959 -0.0000031661962175
  0.7681795415958333  0.1295077864082068 -0.0000031607274069
  0.8664812624117845 -0.0203866051323759  0.9999968418959924
  0.7335082033476826 -0.0460937015384359  0.9999968453141866
  0.9260905864892501  0.3329197734138395 -0.0000031532653841
  0.7849222091224909  0.4061634832772527  0.4999968479807714
  0.8641547061228582  0.2568122124971332  0.4999968407804427
  0.6023526847373981 -0.0803257901578633 -0.0000031409416172
  0.5457717137563564  0.2383818602116360 -0.0000031700890755
  0.9558250788842845  0.0878089950208410  0.4999968377408028
  0.9042509517938195  0.1584556959284923 -0.0000031602547753
  0.9093457578015542  0.4288399414223503  0.4999968386342165
  0.6719850990016476  0.2710529735260951 -0.0000031544493668
  0.7087865118543419  0.0561388816529973  0.4999968414080494
  0.6172621789281694  0.1991922513288781  0.4999968416784031
  0.5833877268173956  0.0226833113619862  0.4999968511315798
  0.7423034838651299  0.2303334412267644  0.4999968434604405
  0.5867983429734417  0.4195568783792853 -0.0000031525437734
  0.7683557535694211  0.6301306651850767 -0.0000031384273677
  0.8401425338945864  0.4773738514716446  0.9999968408529065
  0.7132796979644700  0.4508078145510566  0.9999968516336259
  0.9452038220148437  0.8188657285037126 -0.0000031592705580
  0.8011759160644191  0.9082150935114409  0.4999968407249796
  0.8839687301626179  0.7551793888052916  0.4999968386759889
  0.6459673327588701  0.6050433337733585 -0.0000030975197580
  0.9615889787856763  0.6051251652416171  0.4999968379726312
  0.8930621438551688  0.6528747382142532 -0.0000031548088184
  0.5465141023595639  0.8506907787848189  0.4999968715420379
  0.9318023600237276  0.9196203252809083  0.4999968452220556
  0.6899888816000916  0.7789716121448151 -0.0000031295138935
  0.7157240915052010  0.5597524700849160  0.4999968726383995
  0.6336758427909712  0.7086532743542902  0.4999968916238362
  0.5968398186715808  0.5315088797597689  0.4999969622493323
  0.7583527613410492  0.7347544361690260  0.4999968604345089
  0.5636085625610662  0.7464627362699334 -0.0000030898777401
  0.3423549805969477  0.8356425451549837 -0.0000031701335982
  0.3691194223775963  0.6294085431669505  0.4999967831087334
 -0.0333624260642352  0.4979568000660458 -0.0000031679762675
  0.1561760088141099  0.6652332416704367 -0.0000031751776817
  0.0146704437311571  0.7703597307800027  0.4999968377232011
  0.2044623396363374  0.9222433575296071  0.4999968226018633
  0.7972275935833931  0.3032892877000034 -0.0000031584094063
  0.8331638382343292  0.0816209758553932  0.4999968404229396
  0.5096359131311913  0.0531945324621122 -0.0000031646174437
  0.6378047676807993  0.0952420604394037 -0.0000031601943517
  0.5316732773219753  0.3479154904685446  0.4999968168337393
  0.6602287882731738  0.3753602100684144  0.4999968417700161
  0.8163952875098658  0.8050940106318647 -0.0000031483963376
  0.8379932975022700  0.5834832161558315  0.4999968481995327
  0.5241798458846341  0.5765948747885058 -0.0000027933598586
  0.5077932084889287  0.6840606378776707  0.4999969682783144
  0.6741160389087527  0.8827764797455189  0.4999968615753185
  0.3273498019133799  0.3490041592241637 -0.0000032065245904
  0.3510878907051811  0.1175698844333268  0.4999969067318172
  0.0055275243754113 -0.0053932258388627 -0.0000031609139871
  0.1629423581563111  0.1747503145384373 -0.0000031539140975
 -0.0050773281642740  0.2614749896165838  0.4999968132071541
  0.1602202168331925  0.4356306939241882  0.4999967785060986
