SCAR file written by OVITO              
   1.0000000000000000     
    24.9806232321392336    0.7745598765137681   -0.0000099784140332
     0.5945555127693530   17.1643926730243876    0.0000022441695748
    -0.0000012492024113    0.0000000010667942    5.1003436033649372
   Mg   Nd
    85     6
Direct
  0.3470943110542979  0.1972127164800091 -0.0000028250400094
  0.4305478002307503  0.0511631228249320 -0.0000029922084764
  0.2703953902873479  0.0308183624535570 -0.0000028958026489
  0.4998186247939110  0.4955519911037313 -0.0000031968404968
  0.3022874316325751  0.4424299584727515  0.4999967611606850
  0.4152844579444785  0.2426173588451707  0.4999966310567069
  0.1438989522831522  0.0148326844104899 -0.0000031920303948
  0.0536586968085560  0.1491801016716456 -0.0000032072807150
  0.4913154105178106  0.0875162495151573  0.4999966488854369
  0.4858983651854894  0.2119764192521411 -0.0000032103763920
  0.0225734721569862  0.3673696864394562  0.4999967816602752
  0.4173076426630034  0.4895845980542954  0.4999966861922772
  0.2552630677450489  0.3715899615876352 -0.0000031857028336
  0.2056089884651905  0.0753026055749404  0.4999966444766158
  0.1092383570577244  0.2085585316029551  0.4999967957677564
  0.0707845995910553  0.0424775918584757  0.4999968114382144
  0.2877484221203330  0.2645585033991930  0.4999966502871219
  0.0881882018033110  0.3189847452158356 -0.0000031492385170
  0.3130892599289621  0.7283334917120700 -0.0000032022282776
  0.3935540719929345  0.5840479607133652 -0.0000031722391598
  0.2763150428506343  0.5421331560193273  0.9999968417084077
  0.5001954163734772  0.8930807139347153 -0.0000031462583301
  0.2847957676711041  0.9174091993360688  0.4999967457777812
  0.3721419612059347  0.7820360644900414  0.4999968102654895
  0.1502109635823390  0.5008072379750513 -0.0000031765778191
  0.0679579051698744  0.6486118263319268 -0.0000032285122923
  0.4588997980484336  0.6410739266075015  0.4999967865393742
  0.4375388283966763  0.7497090834821070 -0.0000032215000459
  0.0411988326461046  0.8735245108121030  0.4999968285435498
  0.4351387978877371  0.9309137760823197  0.4999967762715171
  0.2267908254850645  0.8607133008059575 -0.0000031868018145
  0.2017438991814992  0.5718064565389702  0.4999967737059356
  0.1198450456278006  0.7242227207195527  0.4999968406903298
  0.0791529568296645  0.5374856472702252  0.4999967675011469
  0.2408626506224483  0.7530678060411344  0.4999968082467758
  0.1051814510852545  0.8396181477225905 -0.0000032676408176
  0.7621622176906296  0.1550586150063075 -0.0000032319699919
  0.8267369038766883 -0.0187524562256624  0.9999968473524109
  0.6906987786748507 -0.0064890567886585 -0.0000032294550922
  0.9595970017497808  0.3123919292942194 -0.0000032248107676
  0.7621454605997272  0.3783270292436316  0.4999967410804607
  0.8277011035943304  0.2073582311584919  0.4999967582962331
  0.5612534202863726  0.0441204220260105 -0.0000031159429432
  0.8858944730493022  0.0378950832146998  0.4999967702088769
  0.8891534300525366  0.1446510156336281 -0.0000031469349199
  0.8938501269561491  0.3659994754716600  0.4999967553370839
  0.6988364133461776  0.3279399431252359 -0.0000032215775792
  0.6342727760581534  0.0666736207486309  0.4999967830838541
  0.6308828205396498  0.3839938493944118  0.4999967829947479
  0.5690443340356619  0.2215756514557290  0.4999967946106875
  0.6997137673296717  0.2201082514751327  0.4999967659282571
  0.5685441618978339  0.3382186534264823 -0.0000032516985674
  0.8133273187650508  0.6465907351148005 -0.0000032209261999
  0.8859042638580893  0.4773937696380058  0.9999967806500764
  0.7571497482356303  0.4873040207910269  0.9999967546642778
  0.9908191388164345  0.7964823093492494 -0.0000032114149746
  0.8076453652698310  0.8748323545665945  0.4999967796740836
  0.8761064134662708  0.7011083613863002  0.4999968008113294
  0.6287885378157398  0.4960380339621967 -0.0000032402970826
  0.5518371413829325  0.6671988464924292 -0.0000032119434116
  0.9491176481140865  0.5304871031601524  0.4999967731478855
  0.9402281385511509  0.6378056564892466 -0.0000032053459005
  0.5663125411998221  0.9292134874414393  0.4999968089524801
  0.9269918968819783  0.8666982587852012  0.4999967803317129
  0.7460896207145631  0.8194944966311114 -0.0000032470776867
  0.6925459420726081  0.5465437758867489  0.4999967955713718
  0.6253704491740510  0.7166920112281212  0.4999967927773146
  0.5653714548095646  0.5473427708398472  0.4999967665872319
  0.7501400912407861  0.7098118398318563  0.4999967984836426
  0.6180450806081471  0.8309320743926156 -0.0000031703264559
  0.3621509480484106  0.9056877844107274 -0.0000031740189898
  0.3264638342975406  0.6184665866627127  0.4999968045326708
  0.0205017508093587  0.4795545634568594 -0.0000032098514727
  0.1903030111583131  0.6842384630664383 -0.0000032451194919
 -0.0002048097862157  0.6925860008266682  0.4999967977028643
  0.1601742637046893  0.9033074538054677  0.4999968174328855
  0.8299635543305982  0.3140742152283223 -0.0000031980407228
  0.7580916822450228  0.0470143283953708  0.4999968071834495
  0.6367357935212969  0.1751780057384191 -0.0000032174917785
  0.4993411647385972  0.3667526898500505  0.4999967902687998
  0.8704636763378066  0.8085373798142507 -0.0000032153657928
  0.8213817636251511  0.5382767690607193  0.4999967496461257
  0.6849429635563573  0.6568656342791565 -0.0000032375209190
  0.5114004232491494  0.7838799294491333  0.4999967829828250
  0.6855217883077520  0.8838030415064634  0.4999968077474652
  0.3921532047689653  0.3774773230223183 -0.0000029937317650
  0.3452244386352771  0.0779525631013743  0.4999957588053966
 -0.0200013895876010 -0.0109081554709851 -0.0000032852893927
  0.2052201167686040  0.2035555501067990 -0.0000032308399535
 -0.0305993929457247  0.1834434876678281  0.4999967292900162
  0.1685998685753825  0.3734399660176651  0.4999967829588686
