POSCAR file written by OVITO            
   1.00000000000000     
    24.5128217361372194    0.4576005086424024    0.0000000347040226
     0.3274276160423328   17.1544347647686877    0.0000000400458405
     0.0000000024863292   -0.0000000037522963    5.1956711089606946
   Mg   Nd
    86     6
Direct
  0.2947634085145838  0.1845629363995537 -0.0000031305135274
  0.3877389016625965  0.0257738332291132  0.9999968715707152
  0.2631189790345537  0.0138109149513813  0.9999968697038083
  0.4679279732829090  0.3873138658263178 -0.0000031332997887
  0.3139059283315908  0.4765675881527907  0.4999968835706365
  0.4117366740211837  0.3161884711682064  0.4999968801573786
  0.1367199928898362 -0.0096276182780352 -0.0000031328707185
  0.0348839279758226  0.1686949225770531 -0.0000031308915723
  0.4978005257184364  0.1699441487575673  0.4999968688122917
  0.4276943543408640  0.2127896088349759 -0.0000031298403215
  0.0420329605125881  0.4530350127935943  0.4999968705690299
  0.4449042472316090  0.4898333302047404  0.4999968660119861
  0.2020063465793884  0.3536671282730959 -0.0000031288872049
  0.2296020671014570  0.1051738237587520  0.4999968645472860
  0.1322726891986782  0.2779250089555078  0.4999968662507220
  0.0924198797477406  0.0965167412873190  0.4999968640380596
  0.2605164828432550  0.2848668501320003  0.4999968782882555
  0.0745381052978129  0.3460139928047387 -0.0000031325438268
  0.2970440865464486  0.6885292160560849 -0.0000031320847858
  0.3788847394166076  0.5393066027660804  0.9999968677714867
  0.2485243044973358  0.5222304576646398  0.9999968662944311
  0.4717783365615799  0.8825919149105630 -0.0000031334263562
  0.3296432631355973  0.9580107902710736  0.4999968659477684
  0.4145099057583059  0.8149052701743449  0.4999968652557147
  0.1032940023518154  0.5159909880135820 -0.0000031309006556
  0.0229694148102463  0.6617830044077616 -0.0000031352870765
  0.4262094101081552  0.7088502273765803 -0.0000031380615703
  0.0738608952404072  0.9230919237617037  0.4999968638659489
  0.4564035213772186  0.9897990276690306  0.4999968685693376
  0.2156794154636980  0.8345213764113364 -0.0000031346823074
  0.2347921998104078  0.6287299758346341  0.4999968689789897
  0.1534263923751459  0.7759751083741711  0.4999968659783307
  0.0936431257947203  0.6191128192290756  0.4999968682217703
  0.2853409869116769  0.7917190825191214  0.4999968640574324
  0.0840410281145770  0.8220918807161032 -0.0000031369394697
  0.7708213976446486  0.1217287323939603 -0.0000031380437636
  0.8626685648607439 -0.0289061582694691  0.9999968625304213
  0.7295797213851660 -0.0546162484565651  0.9999968628612542
  0.9304821345729515  0.3279881695068244 -0.0000031335880316
  0.7895263624442204  0.4030137390295388  0.4999968626106145
  0.8714604071345388  0.2536192691338680  0.4999968661979806
  0.5985571263642212 -0.0839679710937170 -0.0000031398223645
  0.5549356616132616  0.2395801265406187 -0.0000031352375965
  0.9618808900806701  0.0907144771765628  0.4999968652039452
  0.9054276824432732  0.1527978593897353 -0.0000031365090209
  0.9156648256180058  0.4285372678621676  0.4999968665580863
  0.6794551660250038  0.2673354821220142 -0.0000031328297776
  0.7115340752328564  0.0504159196664919  0.4999968618538748
  0.6240729156815470  0.1968943902216529  0.4999968591626141
  0.5839502459080812  0.0217541633808503  0.4999968652229927
  0.7489166399875913  0.2258696623757692  0.4999968595201760
  0.7637815936311939  0.6207440194553556 -0.0000031415859518
  0.8457563100090426  0.4732462001160399  0.9999968639954110
  0.7194350566709110  0.4454785103170637  0.9999968613738756
  0.9417034498165495  0.8143394187094186 -0.0000031349642857
  0.7985096187311637  0.9018348437398701  0.4999968594497763
  0.8807178078438642  0.7511755725836446  0.4999968612266274
  0.5936879141792749  0.4162073064802475 -0.0000031374969612
  0.5081077530712321  0.5617654113715583 -0.0000031372364709
  0.9624490200767137  0.6041527949409495  0.4999968660787512
  0.8921829289110007  0.6459397590416848 -0.0000031392218345
  0.5424226077416702  0.8455804866606277  0.4999968629895483
  0.9290034885390345  0.9196564472043850  0.4999968632378696
  0.6818773360576765  0.7676483245059141 -0.0000031394082951
  0.7070888093780112  0.5517487975153584  0.4999968607116561
  0.6243400209999155  0.6985739480733905  0.4999968600752971
  0.5785032075526446  0.5209535699184369  0.4999968619887292
  0.7525035145414415  0.7268374223626465  0.4999968651534030
  0.5538133738737862  0.7379989940864361 -0.0000031340414395
  0.3426171960515155  0.8548791826160084 -0.0000031320113127
  0.3680008136493893  0.6460502707991139  0.4999968668542085
 -0.0256513155847008  0.4922950245300979 -0.0000031358933993
  0.1634393089392394  0.6668460473172191 -0.0000031299041882
  0.0134620364549631  0.7718674305837188  0.4999968649765786
  0.2021622396097328  0.9376738554833484  0.4999968630764383
  0.8039197431301396  0.2966187605131090 -0.0000031391107419
  0.8380114363522575  0.0753493790906474  0.4999968627703450
  0.5103864002862729  0.0638168476020768 -0.0000031353396821
  0.6404141942018194  0.0913301532673148 -0.0000031344220841
  0.5391560497569288  0.3466012381421278  0.4999968663660543
  0.6641911198050404  0.3749945166341284  0.4999968615196936
  0.8106013709783816  0.7953148431380335 -0.0000031360486851
  0.8349060447659239  0.5786910939078985  0.4999968636087867
  0.6358375363546773  0.5919749075743498 -0.0000031378237668
  0.4959065912479678  0.6681089043156236  0.4999968635844367
  0.6704013080212388  0.8759915678128420  0.4999968628776910
  0.3324230544493325  0.3588644885198415 -0.0000031379308137
  0.3611433597630662  0.1417080423564316  0.4999968823610765
  0.0034215623922595 -0.0096335056355445 -0.0000031328485868
  0.1658576237263639  0.1791835105540589 -0.0000031215467601
  0.0033852859633558  0.2659333101065014  0.4999968769339905
  0.1763908225040435  0.4532010467231996  0.4999968837014290
