POSCAR file written by OVITO            
   1.00000000000000     
    24.7190132397731439    0.3945724352164684    0.0000006465871313
     0.2825161586743347   17.4340526896501125   -0.0000001350077041
    -0.0000000309086864    0.0000000439119143    5.1502852139021780
   Mg   Nd
    87     6
Direct
  0.2928091971638891  0.1811112678979945 -0.0000031777356677
  0.3897997814180461  0.0108344104919130 -0.0000031743095089
  0.2663770675288659  0.0094358154692648  0.9999968183577049
  0.4629445197836454  0.3885404501912434 -0.0000032217114209
  0.2863313562547241  0.4663286286247414  0.4999968141304583
  0.4076010330125518  0.2817397295356658  0.4999967986935182
  0.1409978840857273 -0.0088922165495002 -0.0000031798895525
  0.0356134549265224  0.1740069913517011 -0.0000031710750389
  0.4955003250744525  0.1589180012731469  0.4999968164145442
  0.4233747336229821  0.1947451135264305 -0.0000031817593115
  0.0334221580788080  0.4516885267113523  0.4999968311425036
  0.3957106154457485  0.4382147874894473  0.4999966906527657
  0.2011173667521360  0.3486745821301528 -0.0000031819425314
  0.2214047986192264  0.0941321237170019  0.4999968222496951
  0.1248472477950635  0.2680221858177936  0.4999968292965675
  0.0884540181489401  0.0958839984921724  0.4999968260217557
  0.2543103250066251  0.2733167813844193  0.4999968046427287
  0.0725094084252847  0.3471045205459467 -0.0000031884372804
  0.2962593162604398  0.6738447938048553 -0.0000031951405310
  0.3802021927176052  0.5314438847809348  0.9999967176626572
  0.2338293665124017  0.5185437776742902  0.9999968020663018
  0.4747997370773150  0.8743668252121166 -0.0000031647449409
  0.3310350446039428  0.9406598197986767  0.4999968257372086
  0.4163456155048793  0.8069565842681867  0.4999968243699757
  0.0970415001242222  0.5171239232547713 -0.0000031859731503
  0.0241597165896431  0.6672507637762316 -0.0000031741849390
  0.4826803588579403  0.5255827255893967  0.4999972939608985
  0.4311206944439572  0.6984244056727775 -0.0000031762332399
  0.0775384436910225  0.9245493354425384  0.4999968200661518
  0.4572551144947036  0.9829538924606214  0.4999968308352943
  0.2183765989155635  0.8278226181848711 -0.0000031759696759
  0.2252770470420623  0.6210086268890598  0.4999968072018885
  0.1518471804140623  0.7721834234434378  0.4999968113490986
  0.0919085270438200  0.6150515714742845  0.4999968192501054
  0.2861911330189915  0.7763371911877256  0.4999968156479153
  0.0857541993900881  0.8280988352320844 -0.0000031685789643
  0.7704275579938722  0.1331074198774925 -0.0000031610286458
  0.8687615816146075 -0.0167903164528205  0.9999968256921923
  0.7357894805284048 -0.0425077431317464  0.9999968396445905
  0.9283319313372400  0.3364985665527455 -0.0000031687314918
  0.7871692276370895  0.4097541920820341  0.4999968430857719
  0.8663973201498988  0.2604144620716342  0.4999968339780081
  0.6046106774430309 -0.0767314048989401 -0.0000031509493364
  0.5480290712902810  0.2419599039501917 -0.0000031841452743
  0.9580618154717769  0.0913758618747493  0.4999968199628088
  0.9065009955044226  0.1620407625676089 -0.0000031665262298
  0.9115979749051867  0.4324134423531598  0.4999968313912679
  0.6742238676090694  0.2746327729559034 -0.0000031664532620
  0.7110406015908394  0.0597209192019822  0.4999968291676059
  0.6195110892415602  0.2027560537548652  0.4999968292796725
  0.5856373358850930  0.0262786064138010  0.4999968326598110
  0.7445430331924000  0.2339233414696076  0.4999968351429979
  0.7706349740399950  0.6337390948440914 -0.0000031513538452
  0.8423895742633100  0.4809562716453699  0.9999968369677322
  0.7155056757152142  0.4544138223475268  0.9999968408218523
  0.9474858929198279  0.8224458813091935 -0.0000031671916545
  0.8034613562759499  0.9118014439110974  0.4999968381805009
  0.8862487991289597  0.7587544665052280  0.4999968363104084
  0.5890260382781951  0.4231447552135433 -0.0000031618913071
  0.5264480533970212  0.5802107110521058 -0.0000028306255444
  0.9638567690875526  0.6086618523191279  0.4999968336288468
  0.8953392236220747  0.6564445072860182 -0.0000031651023351
  0.5487714643393878  0.8542752207338110  0.4999968554891032
  0.9340980161196253  0.9231754864183599  0.4999968386332533
  0.6922620502980210  0.7825758122803628 -0.0000031397372270
  0.7180078728360421  0.5633668925612545  0.4999968577334859
  0.6359357525165185  0.7122581119200229  0.4999968769015982
  0.5991588506547662  0.5351117792172231  0.4999969406536499
  0.7606261306828205  0.7383724183464994  0.4999968521161854
  0.5658673933724597  0.7500697580616722 -0.0000031070243291
  0.3446128125716452  0.8392462617820476 -0.0000031717392804
  0.3714471965110732  0.6330145753686136  0.4999967855553644
 -0.0310924786310824  0.5015004093001029 -0.0000031712981334
  0.1584176748965187  0.6688128873642122 -0.0000031806256484
  0.0169407267641507  0.7738828893671142  0.4999968192867293
  0.2067172297130119  0.9258143072956847  0.4999968145296945
  0.7994655658736985  0.3068926082842151 -0.0000031667243806
  0.8354114374973857  0.0852258347527562  0.4999968300792902
  0.5118912477912599  0.0568294510977475 -0.0000031707738466
  0.6400683039639998  0.0988122904593047 -0.0000031636191369
  0.5339147314465233  0.3514229745583157  0.4999968044119965
  0.6624738616570868  0.3789096487437400  0.4999968353760143
  0.8186852907248698  0.8086806673920600 -0.0000031613878916
  0.8402648039935285  0.5870686505510544  0.4999968386354809
  0.6482472338268941  0.6086753204905264 -0.0000031162177993
  0.5100516279357195  0.6876123865650368  0.4999969554211925
  0.6763874794402120  0.8863755861008268  0.4999968502904049
  0.3295809137575466  0.3526368126908947 -0.0000032031145971
  0.3533317378914870  0.1211590574999191  0.4999968072199086
  0.0077941417853570 -0.0017902471275062 -0.0000031649962115
  0.1652003632136020  0.1782948341449594 -0.0000031819267368
 -0.0028336867533612  0.2650408130439055  0.4999968396807509
  0.1624901713404195  0.4391837514119789  0.4999968241920092
