POSCAR file written by OVITO            
   1.00000000000000     
    24.7236060367590156    2.1536033516722917    0.0000001131912540
     1.5230777451259752   17.5415223136032452   -0.0000011205166039
     0.0000000681951719   -0.0000003119298463    5.1511425088373226
   Mg   Nd
    86     6
Direct
  0.2874437457742763  0.1346816310209230 -0.0000030127109979
  0.3752899290328880 -0.0476300882833371  0.9999970029619936
  0.2532619403141614 -0.0245567615034284  0.9999970106793833
  0.4607895061161935  0.3047455333206339 -0.0000030000284360
  0.3020215049655079  0.4185623588095732  0.4999969974121098
  0.4084537044661061  0.2363999479723846  0.4999970132916253
  0.1284699374129181 -0.0094178920146814 -0.0000029966830637
  0.0288452186227889  0.2030733200036366 -0.0000029919218989
  0.4948483251688827  0.0787549377752838  0.4999970034716441
  0.4181079940831648  0.1364936874341622 -0.0000030141563031
  0.0155451680675734  0.4375887042996892  0.4999970144206994
  0.4338659802167295  0.4068925644358648  0.4999970047779433
  0.1989249460873388  0.3221763984365921 -0.0000027277025528
  0.2165229213757746  0.0689856672908134  0.4999969940502297
  0.1010378596691614  0.2642695914723655  0.4999969891905702
  0.0770768874583798  0.1001058743073391  0.4999970057064401
  0.2483217179393182  0.2368162434183812  0.4999969419131870
  0.0733050925196380  0.3558025442359441 -0.0000029760547623
  0.2870547408386684  0.6371043224317018 -0.0000029974385714
  0.3681838147437525  0.4708497946369142  0.9999970069508123
  0.2388860162666362  0.4798867065344702  0.9999970450199144
  0.4556865457302955  0.7929997323276516 -0.0000029954960742
  0.3178834649320410  0.8980250405392669  0.4999970041454916
  0.4010482109269664  0.7352617254871726  0.4999970085056947
  0.1093326282185324  0.5125661569689921 -0.0000028713481169
  0.0345814862152204  0.6822071880198322 -0.0000029793328613
  0.4831632934581890  0.5745210223931259  0.4999970014296676
  0.4137652573445092  0.6289116371319838 -0.0000029996148430
  0.0651088309329661  0.9329531558580736  0.4999969976902215
  0.4444282848295318  0.9003723989351249  0.4999970013955232
  0.2086061170126395  0.8107570492854075 -0.0000029996233819
  0.2231157779811875  0.5838599439583422  0.4999970064366691
  0.1448198383428231  0.7590672819076414  0.4999969978807347
  0.0949794986804280  0.6043856799634769  0.4999969614774112
  0.2726222208224773  0.7403352960084097  0.4999970050702965
  0.0806595234075588  0.8380795623165846 -0.0000029862636766
  0.7861102436208656  0.1625405129805899 -0.0000030023206648
  0.8666648620222478  0.0029368576657341  0.9999970084678983
  0.7410701965450719 -0.0025541047787087  0.9999969962233237
  0.9482792530602149  0.3822206292496654 -0.0000030155741815
  0.8031525778369210  0.2666173101163391  0.4999969844381242
  0.6140082057733771 -0.0086961359356264 -0.0000030050866493
  0.5410436303928197  0.1488615654081173 -0.0000029986661035
  0.8815575371682495  0.1048089648013544  0.4999970012979094
  0.9020177910766366  0.1887255768520930 -0.0000029958226859
  0.5714092341141701  0.4175994208387382  0.4999970011078222
  0.8544281386347785  0.4376960303292761  0.4999969833256430
  0.7152905780352278  0.3255730718947496 -0.0000029930354684
  0.6653423663639614  0.2638997516618387  0.4999970026132348
  0.5881358028907639  0.3134740950969579 -0.0000030031066931
  0.7793081315774117  0.6776657501397685 -0.0000030045724580
  0.8655194235599810  0.5301484023855577  0.9999969982942605
  0.7501065026946527  0.4960568268389203  0.9999970053559555
  0.9529695757929666  0.8467687337305591 -0.0000029864958457
  0.8128469274305437  0.9455129844352290  0.4999969969816678
  0.8934428649837498  0.7886485712077195  0.4999970000619330
  0.6264701405677177  0.4784709014564277 -0.0000029947646777
  0.5385851364191183  0.6349114788937156 -0.0000029972272130
  0.9728884301314107  0.6274570912351721  0.4999969999291984
  0.9059764222101218  0.6889148552850440 -0.0000030012677820
  0.5692021970069426  0.9119648671184162  0.4999970030867393
  0.9405652364328231  0.9419295024685099  0.4999969939051677
  0.6953627882558829  0.8331221270756676 -0.0000030043625341
  0.7381487668887280  0.5975613586896564  0.4999970002560781
  0.6508904758654409  0.7555177170340346  0.4999970015255772
  0.6120079078413531  0.5832486779055689  0.4999970002495299
  0.7693269169860036  0.7810031543538102  0.4999969983556311
  0.5753497050636830  0.8101890916520020 -0.0000029993553348
  0.3317615967472654  0.7928241214780976 -0.0000029979723432
  0.3552113004125250  0.5774980329512105  0.4999970048311272
 -0.0124292387314862  0.5329881043408113 -0.0000029907462777
  0.1611445200855984  0.6567469144443070 -0.0000029922962131
  0.0196386988127474  0.7801389605536351  0.4999969933712068
  0.1920121429252706  0.9080079094649226  0.4999970016677541
  0.8364392939696687  0.3472021128943708 -0.0000029955979983
  0.7394942059048147  0.1029408940343918  0.4999969970067905
  0.4924097943227558 -0.0256077615648932 -0.0000029961879888
  0.6622638798133663  0.1534175913512202 -0.0000029997630307
  0.5382980956474999  0.2491587928848024  0.4999970009049933
  0.7072850554558886  0.4274976155516538  0.4999969972097503
  0.8223362756445830  0.8416717638956893 -0.0000030004597111
  0.8535378529929247  0.6275075733089203  0.4999969970942242
  0.4982024182868227  0.4685609571812717 -0.0000029977691122
  0.6608510307608575  0.6498817764898378 -0.0000029999431376
  0.5272837370786284  0.7418247763962259  0.4999970032213989
  0.6871682641521943  0.9422222233510517  0.4999970043089980
  0.3263868683210482  0.2987631125519226 -0.0000029764870468
  0.3546633930326549  0.0718997572412795  0.4999970556103752
 -0.0060768998612263  0.0338898401892348 -0.0000030073489766
  0.1590225738927624  0.1663076844753296 -0.0000029853206817
 -0.0468462208506831  0.2650786814065235  0.4999970252068877
  0.1644837719644000  0.4153871269050123  0.4999964641387914
