POSCAR file written by OVITO            
   1.00000000000000     
    25.4408523938288411    1.7401773902558435    0.0001850073740656
     1.2724782992051822   17.1029060601423986   -0.0001060332221604
     0.0000034603590384    0.0000211502321582    5.1649704058571055
   Mg   Nd
    87     6
Direct
  0.2929784198331565  0.1464912991914480 -0.0000404762958260
  0.3806343705250970 -0.0355913762243889 -0.0000186378414947
  0.2605410143138480 -0.0192161355089431 -0.0000012870072424
  0.4644026000035571  0.3072265768743275 -0.0000026798197794
  0.3003806170563609  0.4295721223795366  0.4999972834743728
  0.4072212674306704  0.2424663957041335  0.4999995020189050
  0.1383143191889554 -0.0158930026426111 -0.0000028235376323
  0.0399944684158253  0.1939333011837402 -0.0000020142173986
  0.4881570389234502  0.0849350158366339  0.4999991061655161
  0.4210030777944861  0.1403749049156711 -0.0000154677093405
  0.0324087737447909  0.4361976862409574  0.4999959936801582
  0.4278063210648847  0.4138317496242920  0.4999972756827668
  0.2127245005132570  0.3305260479312347 -0.0000016334410702
  0.2258541650312960  0.0736313526099941  0.4999952059762811
  0.0967880208067182  0.2629257530531037  0.4999926250613050
  0.1013950070436736  0.0858323214105053  0.4999955503692211
  0.2576315180156210  0.2481283370603290  0.5000021572878086
  0.0952342756136827  0.3493813687741459 -0.0000005258817338
  0.2869130907167489  0.6477952516175632 -0.0000034518161413
  0.3677805646063934  0.4869694745167908 -0.0000028665208721
  0.2404669957233709  0.4925372694887170 -0.0000024792959057
  0.4586315242244926  0.8062718825511791 -0.0000034686909948
  0.3211510812953882  0.9069422996881797  0.4999977763169836
  0.4023939168268897  0.7495008463487363  0.4999975112369423
  0.1042931374891361  0.5140417674013249 -0.0000036832068512
  0.0295715800341196  0.6777782528426306 -0.0000035126442257
  0.4780631582536523  0.5841820007704973  0.4999969576211671
  0.4129221263180365  0.6433154275596227 -0.0000037312628505
  0.0726952285974628  0.9263800680022298  0.4999942381154743
  0.4454010362710261  0.9157025451046993  0.4999997213242506
  0.2114921145514898  0.8119129910082756 -0.0000033861768427
  0.2238260941230059  0.5955346562778110  0.4999974864477486
  0.1473969669672003  0.7598435510806786  0.4999967576931919
  0.0879877223533821  0.6066488282054860  0.4999984922732255
  0.2754161126352832  0.7505492577584882  0.4999969798600791
  0.0845798709356526  0.8298252847105184 -0.0000028498741223
  0.7919624322544425  0.1656245915891108 -0.0000031613295055
  0.8742224168113386  0.0032140638398362 -0.0000035656984672
  0.7505649253978732 -0.0085476151713748 -0.0000033974166902
  0.9788459535832729  0.3563384787098618  0.0000012243193693
  0.7795918121157782  0.2775139539140669  0.4999960379093638
  0.6262597879838714 -0.0173570150273243 -0.0000030443343329
  0.5459123667298573  0.1434136627562341 -0.0000033636464259
  0.9833379502871037  0.1436306185703723  0.4999929070155861
  0.9170066392394359  0.1926044591666822 -0.0000016769700680
  0.5598044505013657  0.4222907848127365  0.4999972049443241
  0.8054904471731000  0.4582665418891341  0.4999965610767614
  0.7054751140296929  0.3246902818895995 -0.0000029346217293
  0.7404722347737974  0.1009275925678565  0.4999965592703317
  0.6140610458434360  0.0909085259529188  0.4999968934533752
  0.6542676819897939  0.2612178673683772  0.4999965556150178
  0.5847905717335729  0.3148284460294284 -0.0000030099932771
  0.7880468949797227  0.6521862808193361 -0.0000033029677893
  0.8711013499188961  0.4865814936838386 -0.0000030651129375
  0.7385899353586877  0.4962629814577851 -0.0000038159270544
  0.9533139507214443  0.8398080695208593 -0.0000033435957983
  0.8190371864154185  0.9379536293425449  0.4999965594048120
  0.8989314040265419  0.7698242636134702  0.4999968969142300
  0.6164419449229944  0.4864636208942331 -0.0000033672031830
  0.5353415812509023  0.6466408634107010 -0.0000039619585989
  0.9083906128540737  0.5609922472809464  0.4999963377414162
  0.9059862990350402  0.6715026459189305 -0.0000039724439770
  0.5709759999529588  0.9244421618464697  0.4999972502480146
  0.9422698125687077  0.9463527912880538  0.4999935258384550
  0.7063476070206601  0.8191411915484897 -0.0000033219876490
  0.6848170080340383  0.4339759344565864  0.4999965225710805
  0.6494484930852413  0.7644553249973359  0.4999964824191260
  0.6030503611370167  0.5935091329223984  0.4999970740496256
  0.7765850258673207  0.7640200853156028  0.4999966921385814
  0.5808911325852693  0.8158745588151070 -0.0000034438599774
  0.3340200145772557  0.8033871116016300 -0.0000033919868394
  0.3534632180382235  0.5909707450483630  0.4999967503230337
 -0.0153249025673958  0.5247480319217991 -0.0000031369440865
  0.1593094474354839  0.6560033774728129 -0.0000032977989001
  0.0196409906398909  0.7796101875674574  0.4999974956556427
  0.1974455179957927  0.9122031892681318  0.4999966976437848
  0.8260248362589419  0.3364922154326044 -0.0000024644697833
  0.8671249672173974  0.1181323272865263  0.4999962812026116
  0.5002620699171464 -0.0221422184642426 -0.0000027424064591
  0.6683826533561636  0.1516838041860823 -0.0000029532476172
  0.5315067531116227  0.2511217392058708  0.4999974532234580
  0.8288727827671202  0.8294445681374358 -0.0000035758905153
  0.7256412807212110  0.6060639932477536  0.4999967525351621
  0.4929356089077340  0.4783066242045852 -0.0000036462752554
  0.6587889394084174  0.6553528216465685 -0.0000036493031602
  0.5259269598481116  0.7555277094526239  0.4999969620373522
  0.6962819930765440  0.9301586684942525  0.4999961946904196
  0.3348308126186128  0.3113487960597733 -0.0000024862343324
  0.3523262856273026  0.0829337194901605  0.5000635670527653
  0.0071205125725243  0.0160656666779717  0.0000026435484536
  0.1692917616729941  0.1702679661770319  0.0000020906305426
 -0.0887502983254561  0.3341230212296362  0.4999891681455649
  0.1686245266995826  0.4228022883174605  0.4999963116409788
