POSCAR file written by OVITO            
   1.00000000000000     
    25.4441134927127521    1.6100631742528015   -0.0000152599201766
     1.1431391282404133   17.2409451214438043    0.0000122895455540
    -0.0000034066063548    0.0000040244043391    5.1550164737386073
   Mg   Nd
    87     6
Direct
  0.2881803395454239  0.1382443972143370 -0.0000030209274907
  0.3770175599767133 -0.0357996563985692 -0.0000031985509052
  0.2565953168738445 -0.0272579045765623  0.9999967102120975
  0.4536120675746551  0.3132978736560786 -0.0000032305890616
  0.2990081612575443  0.4258491994137550  0.4999967964255000
  0.3980685134138364  0.2470217157142364  0.4999967858382414
  0.1340918662242604 -0.0278217680451503 -0.0000032822412920
  0.0419852036596644  0.1679389626829239 -0.0000031354602014
  0.4847579437428778  0.0918882158138114  0.4999968529675057
  0.4163318771602364  0.1443693700614287 -0.0000031152489407
  0.0358871544674795  0.4381681354296025  0.4999971336817359
  0.4250787726743847  0.4176542672098811  0.4999967391686673
  0.1974430904745116  0.3198533100596770 -0.0000037310914335
  0.2218664392237218  0.0654394015992171  0.4999967722910869
  0.1225960313252074  0.2516403304253558  0.4999971021006914
  0.0871353587781196  0.0806263536929186  0.4999968183031475
  0.2510431448877570  0.2403004526492956  0.4999968570006972
  0.0723575717457074  0.3343173260691080 -0.0000028931731121
  0.2838089027889919  0.6412998070601543 -0.0000034389927692
  0.3628690392278862  0.4818697750142544  0.9999966308352963
  0.2366937098890743  0.4821026363334180 -0.0000034165106960
  0.4547846944403116  0.8088590120954831 -0.0000030992488154
  0.3196924785980283  0.9038816552702230  0.4999966853256189
  0.4000007659491274  0.7492370114831561  0.4999968242616887
  0.1001134859865909  0.4978820323236767 -0.0000032882707079
  0.0268230286832144  0.6590008284227116 -0.0000030604475829
  0.4755443130715739  0.5893234883125260  0.4999969022008829
  0.4087903207255896  0.6422879385879768 -0.0000031457861150
  0.0709520002835250  0.9115186737370891  0.4999967713729996
  0.4433275554123013  0.9186111366179843  0.4999968538510874
  0.2080057415486900  0.8020613874241049 -0.0000032622170115
  0.2228896953465528  0.5882677542268586  0.4999965968681723
  0.1464068608069820  0.7501134191525661  0.4999967758196975
  0.0910487681805756  0.5959707963532884  0.4999969225047928
  0.2740559064874853  0.7450393228097503  0.4999967109803054
  0.0816505015231756  0.8150562688258510 -0.0000031460345085
  0.7941313618974173  0.1741168801097902 -0.0000026285949821
  0.8754995363307438  0.0066230568601325  0.9999970868995192
  0.7497825377599744  0.0009390405118608  0.9999973178117350
  0.9370735585880410  0.3482056583813532 -0.0000027421113067
  0.8694779597260361  0.2637860923861952  0.4999970400517709
  0.6229042811262548 -0.0016348242466893 -0.0000025311227896
  0.5446578441147109  0.1536259401492528 -0.0000032102708310
  0.9358163733216026  0.0930232730474571  0.4999970271552728
  0.9195238240275653  0.1796535961686283 -0.0000029030861298
  0.5549353841187770  0.4300658172292942  0.4999968573642683
  0.9107328987020726  0.4399131355306222  0.4999972712518327
  0.6928131386339701  0.3370634483946735 -0.0000027268096035
  0.6380795434116302  0.2654689808235048  0.4999971093641753
  0.7538465327184146  0.2827054981398864  0.4999971928190345
  0.5738554151296367  0.3241615211830047 -0.0000030830943570
  0.7768769150185503  0.6701924887612745 -0.0000027949985267
  0.8534112190767986  0.5098937771171386  0.9999972646028595
  0.7339559743698466  0.5036611794087748 -0.0000027535664838
  0.9525966117963376  0.8268506299882897 -0.0000030083132579
  0.8160649106965040  0.9446469868968562  0.4999972100443080
  0.8907996573396354  0.7719784981057738  0.4999971101043347
  0.6106024650280245  0.4944732011614790 -0.0000030475072025
  0.5312912668363821  0.6520954003199048 -0.0000029507850538
  0.9649636248637458  0.6071284999371286  0.4999971132025643
  0.9006790234973469  0.6705091136957778 -0.0000028606078621
  0.5683489360226623  0.9336610120885795  0.4999972620736918
  0.9418042264030679  0.9227924549084140  0.4999969881483887
  0.7002473342524344  0.8334294133608570 -0.0000028140232426
  0.7216851200690231  0.6096138339383937  0.4999971701365251
  0.6446985530204647  0.7723973522536723  0.4999971218207941
  0.5993702876307104  0.6006300531129175  0.4999969062224507
  0.7673894018114332  0.7773194544765962  0.4999971256881996
  0.5763909171551200  0.8251996680011607 -0.0000028012080990
  0.3305179995834596  0.8001355699830108 -0.0000032763708499
  0.3519558602191799  0.5879996023240520  0.4999967115779060
 -0.0245060490695285  0.5045189708897745 -0.0000028911939402
  0.1562540596199772  0.6431319529552383 -0.0000033331008255
  0.0179515904496583  0.7625970376479072  0.4999970004529067
  0.1957744261437447  0.9031949586069536  0.4999967453096417
  0.8141724617048453  0.3484885451036204 -0.0000029080069802
  0.7376322758597629  0.1062712745120554  0.4999973374031718
  0.4967573758889244 -0.0139850510084194 -0.0000031437011922
  0.6678213563670325  0.1617849472473520 -0.0000027201483678
  0.5193251840449623  0.2617373830910775  0.4999969404532519
  0.6797197934711982  0.4418788821848826  0.4999971629079390
  0.8263084583591983  0.8372202981233945 -0.0000028919620579
  0.8431393554020581  0.6109853539662810  0.4999972367529947
  0.4873811629683633  0.4830675422544219 -0.0000031715058699
  0.6539361944490151  0.6639964506666187 -0.0000029011342118
  0.5230476744226702  0.7614325884098062  0.4999970671539966
  0.6910734302930812  0.9418675263151006  0.4999972894946986
  0.3234181390638448  0.3067513834592001 -0.0000030457095464
  0.3494985414839897  0.0816567501115571  0.4999961475272014
  0.0053690528637175  0.0032950718299821 -0.0000029895368204
  0.1648021512010103  0.1535781275543992 -0.0000029714500239
 -0.0036811424647380  0.2539937668972436  0.4999972474943788
  0.1673409042239634  0.4166008059501580  0.4999975114112346
