POSCAR file written by OVITO            
   1.00000000000000     
    24.7511115062579279    2.1285573210500517    0.0000109134007834
     1.5156101684421872   17.5478797679440000   -0.0000123209182108
     0.0000010562631364   -0.0000033031163589    5.1372805740577325
   Mg   Nd
    85     6
Direct
  0.2936079518253493  0.1305898518706138 -0.0000050603799827
  0.3767870543302891 -0.0495986405988728 -0.0000038383279671
  0.2548369148132780 -0.0288004674539765 -0.0000031425036348
  0.4638842197842154  0.3068126699101083 -0.0000034474725365
  0.3035947149212887  0.4188952621471178  0.4999970705237201
  0.4124451000725851  0.2369696621523775  0.4999968701506903
  0.1296474944771601 -0.0146789114598599 -0.0000028470446799
  0.0370539331462165  0.1931158367733307 -0.0000023122540976
  0.5010373725452995  0.0815119693558004  0.4999970699740858
  0.4228312622257412  0.1390695717305197 -0.0000041463876068
  0.0263005400486285  0.4376649473866095  0.4999968728590709
  0.4339717106255538  0.4082298896358825  0.4999966592939283
  0.2023975085872921  0.3173442369866304 -0.0000026682611084
  0.2245119411968717  0.0647525875502699  0.4999972485356751
  0.1110729484093111  0.2575156198020787  0.4999973912909516
  0.0836473344325311  0.0934227159713403  0.4999971875983595
  0.2537507714446483  0.2334050696655020  0.4999976889711197
  0.0774615939923817  0.3459879784542042 -0.0000028099770877
  0.2858170580582022  0.6367547378514873 -0.0000028086666174
  0.3681485680579952  0.4721996370432641 -0.0000030399060228
  0.2387249035525920  0.4784375597747062 -0.0000025533875555
  0.4558986786439914  0.7917367956249631 -0.0000031036803320
  0.3199865434957876  0.8982786262656711  0.4999966684086639
  0.4018025362894139  0.7354917685821030  0.4999965484576219
  0.1040417530795175  0.5058696808264050 -0.0000021579999917
  0.0317824183517053  0.6774081135570164 -0.0000028353518557
  0.4832912742874226  0.5752261351698139  0.4999970324380131
  0.4131069672381397  0.6296655120284685 -0.0000027314224962
  0.0653597970602736  0.9284867640521668  0.4999965966565700
  0.4472975168929462  0.8977102547955264  0.4999966501333782
  0.2076160367697050  0.8062756110116572 -0.0000031049978273
  0.2235668435286046  0.5831849622731836  0.4999976807662468
  0.1448197953717656  0.7553907710136348  0.4999971150733641
  0.0939054518549736  0.5993927659782944  0.4999981755669790
  0.2733752544189439  0.7403327931355375  0.4999967140065237
  0.0800457672655820  0.8332675894608338 -0.0000033363757286
  0.7897031639581144  0.1701482530624067 -0.0000017195115301
  0.8672918823177622  0.0065745391861822 -0.0000028603548882
  0.7423187438932447  0.0016284666580053  0.9999973130910447
  0.9537608601260892  0.3751826253348606 -0.0000024727861329
  0.8096531987807862  0.2709247532723126  0.4999983246817521
  0.6142497982975362 -0.0046065434983828 -0.0000029374312818
  0.5450175213542530  0.1535063355297586 -0.0000024823007510
  0.8866568639081766  0.1080473880560759  0.4999973649548823
  0.9061046815415297  0.1970266482361043 -0.0000025669619995
  0.5695348763553896  0.4187338253784715  0.4999967344409509
  0.8929356391821104  0.4424540931623359  0.4999979317712286
  0.7183611285563410  0.3335738836555410 -0.0000017617671505
  0.6701502928248595  0.2699586365185568  0.4999979816506539
  0.5916516281996497  0.3160192180515763 -0.0000026791408456
  0.7758639451165489  0.6820635856721964 -0.0000039314954300
  0.8562721981766079  0.5308594975002445 -0.0000022123193499
  0.7415530706854446  0.4987138793298617 -0.0000062994971372
  0.9527063472838760  0.8465613344829246 -0.0000031642201087
  0.8134576855589108  0.9471406882966911  0.4999967834041671
  0.8930500113709638  0.7889486967958931  0.4999966516758793
  0.6236118605686705  0.4795733620913856 -0.0000029719752798
  0.5376219018076923  0.6353379766277527 -0.0000027531962470
  0.9705722698571774  0.6243232272001573  0.4999965379552479
  0.9030476207522879  0.6896931778803198 -0.0000030325747079
  0.5707853256483952  0.9143019479410254  0.4999969119865235
  0.9408008758040689  0.9419464550745928  0.4999967287312018
  0.6945350141948703  0.8381006806205917 -0.0000035909470627
  0.7348444981510733  0.6053677354823497  0.4999950156461871
  0.6507353949808299  0.7596429448835658  0.4999964213428539
  0.6130833204935039  0.5825148154599593  0.4999966997524224
  0.7686313429436208  0.7851812743134342  0.4999961663621164
  0.5743381830127459  0.8136887292218816 -0.0000027198463004
  0.3312954701784428  0.7927197457496424 -0.0000032917759142
  0.3552858115533912  0.5781625002357176  0.4999972263958168
 -0.0211917369867687  0.5311584544634214 -0.0000035556335059
  0.1586651190651046  0.6500353460933845 -0.0000024393935054
  0.0190650851831489  0.7765706588557588  0.4999968572571524
  0.1929700823777769  0.9063784507762694  0.4999969673097494
  0.8379753680458415  0.3590615752670110 -0.0000016057763021
  0.7443692214559186  0.1079131103851762  0.4999979093751197
  0.4925149935096386 -0.0230052737667537 -0.0000032243410548
  0.6660526783608652  0.1579338682134264 -0.0000018121448592
  0.5427469003599621  0.2504477877353350  0.4999969786523605
  0.8222106731370572  0.8444637407711506 -0.0000033578067623
  0.8507863313392923  0.6291707807488913  0.4999972201297820
  0.4973937423046573  0.4700005559344647 -0.0000030267837074
  0.6578340319172852  0.6531812653700482 -0.0000037549803480
  0.5288218475448491  0.7411723304233228  0.4999970308495111
  0.6876534592318518  0.9490476653537113  0.4999968413645159
  0.3298052160014802  0.2985992091586787 -0.0000030681593017
  0.3629033862137192  0.0700825035467001  0.4999992099412842
 -0.0047685193414549  0.0327628446228510 -0.0000035011949329
  0.1653494618171178  0.1591956194258956 -0.0000031287544861
 -0.0313461262657245  0.2599436966089235  0.4999968458061870
  0.1678964091971606  0.4124470642239697  0.4999979012343624
