SCAR file written by OVITO              
   1.0000000000000000     
    25.0661051615438950   -1.2526241281702408   -0.0000106253501187
    -0.8863789648831866   18.3009349504321897    0.0000125918199732
    -0.0000025666151476    0.0000033816014990    4.9410160323336250
   Mg   Nd
    89     6
Direct
  0.2898843434531621  0.1685899575838051 -0.0000025281417231
  0.3744513330024333 -0.0031136929513052 -0.0000028558141372
  0.2508722857059959  0.0002434662925125  0.9999968882453443
  0.4735619828478823  0.3272465545022125 -0.0000030484630827
  0.3025754918467353  0.4334529786424671  0.4999969243482105
  0.4049952735551732  0.2571838154970890  0.4999968609826162
  0.1258753939754146 -0.0135778227382490 -0.0000030098165176
  0.0400396433658396  0.1586507289945435 -0.0000031926586576
  0.4668116533581890  0.1091776255480333  0.4999968827051559
  0.4131208013957888  0.1671586174618868 -0.0000029393041442
  0.0400666526126279  0.4161187792584605  0.4999967958335588
  0.4236574900686206  0.4242428346437212  0.4999969445099232
  0.2147503195594609  0.3286678521723939 -0.0000033076719562
  0.2045342787672597  0.0690937422386059  0.4999969302662091
  0.1250315928235304  0.2444130204517406  0.4999973579678620
  0.0789618217550832  0.0755793527520800  0.4999968715350357
  0.2553716958754335  0.2502705856153521  0.4999968806064530
  0.0849914165401908  0.3275973731259171 -0.0000031361136972
  0.2939662673742235  0.6675546588035066 -0.0000030023173036
  0.3795987629594952  0.5151488764563651  0.9999968589210299
  0.2528535237474870  0.4984790011268790  0.9999969455947273
  0.4602043430090466  0.8482321962297176 -0.0000030688983348
  0.2947874264348557  0.9157445866484596  0.4999969670937752
  0.3807657054570278  0.7660712494462696  0.4999968428912328
  0.1250632792296320  0.5005712588089948 -0.0000031102767879
  0.0451629211380982  0.6585316925513128 -0.0000031378913105
  0.4625249396957378  0.5909333326697360  0.4999968850441390
  0.4206613484646294  0.6813319736830380 -0.0000031461472716
  0.0446814846356187  0.9025810991348882  0.4999968587057883
  0.4204192547181687  0.9366154076807924  0.4999967712304618
  0.2099173671853864  0.8300955935866350 -0.0000031217434080
  0.2148962405055454  0.5850064620383312  0.4999968868063436
  0.1261331557257669  0.7434914918957931  0.4999969369840682
  0.0880102191265530  0.5770707408660327  0.4999969094837312
  0.2536161299507647  0.7503938671393794  0.4999969363724547
  0.0824482241187734  0.8246730261482215 -0.0000031076889453
  0.7849762752715791  0.1638717394570756 -0.0000030612882845
  0.8652628206269810 -0.0046462222358500  0.9999967876857957
  0.7442025201643416 -0.0031072035384536  0.9999968166199057
  0.9567478796469873  0.3320424621406529 -0.0000030402241688
  0.7921385929587411  0.4102520622002959  0.4999969583501542
  0.8678134634371468  0.2409658764586881  0.4999968802929658
  0.6222989551760676 -0.0019410083647355 -0.0000031509746960
  0.5394089209612006  0.1824731724318768 -0.0000030516298020
  0.9417861470077565  0.0722062807681327  0.4999970302998347
  0.9134429489666455  0.1601986499751070 -0.0000029512073530
  0.9168033364329048  0.4046432819261549  0.4999969107573128
  0.7126209272269871  0.3326714653478932 -0.0000030183459242
  0.7013546412945169  0.0807331937967200  0.4999968327780637
  0.6154034333425816  0.2514192714042293  0.4999968357311688
  0.5824927679177241  0.0859249621285594  0.4999968306422722
  0.7436917370013383  0.2453771923988315  0.4999969667990455
  0.5943499969345351  0.3409367325598096 -0.0000030387767326
  0.7945720052097774  0.6628814501062257 -0.0000030739695124
  0.8758899071348595  0.4891578782174738  0.9999968926522529
  0.7527736706779503  0.4980614438209597  0.9999969340154002
  0.9584606282047679  0.8153894697134497 -0.0000029704517014
  0.7896581465785897  0.9124583280119116  0.4999969717925212
  0.8769352369201986  0.7380570913368482  0.4999969341363310
  0.6293888786118013  0.5033982691307680 -0.0000031002419313
  0.5447612095885747  0.6632535406346665 -0.0000031098686681
  0.9596913332596797  0.5719093165674867  0.4999969319790040
  0.9188301813232529  0.6523336187322571 -0.0000030454750239
  0.5427688979499193  0.9205308252015626  0.4999969235256926
  0.9161236815103070  0.9047686410264011  0.4999969190996129
  0.7101772850007612  0.8300553197412776 -0.0000030378020227
  0.7104475076364545  0.5814174568081741  0.4999968597510479
  0.6266453842007630  0.7453495958058004  0.4999969390423230
  0.5852648072643105  0.5780335327294549  0.4999969561429337
  0.7519381440703640  0.7462195180777029  0.4999969711658931
  0.5845932931995065  0.8301868083968358 -0.0000030779119999
  0.3339248184376655  0.8317511883016276 -0.0000030411574570
  0.3401325352972012  0.6004325744101994  0.4999969412534341
 -0.0005361043174136  0.4969390504851450 -0.0000031278200172
  0.1698879901015990  0.6651449845206850 -0.0000031128651671
  0.0018276218100107  0.7365439480997970  0.4999969155001552
  0.1701102221633035  0.9052540155620780  0.4999968983134028
  0.8332390372883314  0.3260993868135353 -0.0000030084169325
  0.8212214847830283  0.0792503323500602  0.4999968817477522
  0.4997115859910721  0.0156640311154431 -0.0000030652840921
  0.6613567698508926  0.1687662098357246 -0.0000031315487258
  0.5445263070837743  0.4053494241645503  0.4999969271584528
  0.6688082067760569  0.4147545693280260  0.4999968737286539
  0.8358901044835445  0.8283447201910786 -0.0000030328239956
  0.8349313580678794  0.5749269247645984  0.4999969435067139
  0.5030623585843239  0.4955826280479553 -0.0000030428777999
  0.6701518340033379  0.6660143848252521 -0.0000031236863338
  0.5031701623534559  0.7551784021360802  0.4999968463328818
  0.6658649183440744  0.9130518828098428  0.4999969363488795
  0.3416345784087849  0.3322892980643545 -0.0000030996571539
  0.3353141292493257  0.0940714381223411  0.4999960206451540
 -0.0042602247443888 -0.0066090807853486 -0.0000030497892350
  0.1656929952021750  0.1631955683878829 -0.0000034874392752
 -0.0004108757899410  0.2393681530388727  0.4999968747353032
  0.1708615128763560  0.4088403514904073  0.4999971028227440
