POSCAR file written by OVITO            
   1.0000000000000000     
    25.5866333230653922    1.7445051247012280   -0.0000111514583912
     1.2515173271222795   17.1786138476845487    0.0000063116422592
    -0.0000029899664991    0.0000036744842132    5.1728465353528339
   Mg   Nd
    88     6
Direct
  0.2859318628038038  0.1407847980903839 -0.0000002714310333
  0.3743772572360761 -0.0351583361392108 -0.0000018921034164
  0.2545870430172771 -0.0247338958360391 -0.0000028078075394
  0.4543447606079916  0.3116496777929874 -0.0000027088906412
  0.2996809929330274  0.4282776929690560  0.4999973746095355
  0.3989920471888214  0.2476191483580866  0.4999970791716037
  0.1331967396303757 -0.0263552560006245 -0.0000030792282134
  0.0358949125025648  0.1686253886201743 -0.0000033950504424
  0.4813845396718206  0.0896097759207531  0.4999972237195640
  0.4136930267455046  0.1440632224293007 -0.0000018552622548
  0.0387066623017148  0.4480146336653308  0.4999967605630443
  0.4253004657642002  0.4175750781491847  0.4999971229142660
  0.1971041287023983  0.3232421966524988 -0.0000035700892024
  0.2210031563833252  0.0696748105661571  0.4999968534407775
  0.1246882942974539  0.2576303301103163  0.4999970113840381
  0.0890121671411319  0.0847570922905092  0.4999969276612769
  0.2513591873880870  0.2444975120655958  0.4999968130398684
  0.0721804957514173  0.3375438424622518 -0.0000031165526486
  0.2838685016551663  0.6437229690757245 -0.0000029004499510
  0.3632235389124993  0.4829958652990139  0.9999971792080796
  0.2376196255542476  0.4849024748329675 -0.0000028970467514
  0.4530120630421680  0.8080662716479916 -0.0000026925297427
  0.3176247474455056  0.9062068102630122  0.4999970728943651
  0.3982603028549873  0.7493582940448095  0.4999971867560735
  0.0997543367807930  0.5019989090769215 -0.0000031296889027
  0.0239678119481540  0.6609882181461265 -0.0000032705929265
  0.4745677736757493  0.5873452474538056  0.4999969634029202
  0.4083015104735456  0.6425463436540980 -0.0000028772205768
  0.0712419104153783  0.9147787710699261  0.4999969099348044
  0.4398106531793157  0.9172440696931909  0.4999970659095949
  0.2073576272492141  0.8041556953881814 -0.0000029927764429
  0.2235563233958174  0.5920439398405808  0.4999970515623724
  0.1466878536178083  0.7537822685261276  0.4999969432311658
  0.0909098122087284  0.6038609780667483  0.4999969422213699
  0.2734291079849979  0.7475633823597793  0.4999970843611122
  0.0811473309174016  0.8147146777175963 -0.0000031254441984
  0.7818829121786404  0.1694032991319931 -0.0000033119640374
  0.8711465939263520 -0.0008460583369365  0.9999968148624708
  0.7447174501072432 -0.0046399095325870  0.9999969197489271
  0.9301840939776006  0.3466015711858261 -0.0000032693067599
  0.8708068493218407  0.2793175129214177  0.4999967074470130
  0.6189831732317589 -0.0098236091141876 -0.0000029153735612
  0.5378404258727071  0.1502747016181701 -0.0000027857400969
  0.9625265014410639  0.0990996327043823  0.4999970422731893
  0.9110309307377780  0.1745037803607411 -0.0000031606567923
  0.5545593265195723  0.4271080453901460  0.4999969957761266
  0.9144885340671254  0.4464480401488971  0.4999967336332768
  0.6905125946787070  0.3315673414419193 -0.0000035026331646
  0.7251301004763366  0.0991956084638732  0.4999969047424383
  0.6042036251163369  0.0966994866530322  0.4999971035314911
  0.7511208197623571  0.2713683611532395  0.4999965349726234
  0.5746626335629350  0.3205965972312141 -0.0000028206132803
  0.7746596401136938  0.6651817919578145 -0.0000033594003028
  0.8503822130283967  0.5050324699024291 -0.0000033290113310
  0.7313910930409900  0.4992032872259309  0.9999964993636563
  0.9475409282959929  0.8280820924499248 -0.0000032475969420
  0.8095018573811696  0.9376898952495971  0.4999968744961131
  0.8880786045046312  0.7736944796606008  0.4999966913545189
  0.6096414300641547  0.4897909196995678 -0.0000031838036027
  0.5304212687844463  0.6495646032500388 -0.0000030190615742
  0.9644184250241766  0.6117253694264309  0.4999965973525608
  0.8981234482087033  0.6682971961105770 -0.0000033897065894
  0.5638077812630002  0.9281071223149717  0.4999972273264467
  0.9348525170526756  0.9329349039835027  0.4999968900113737
  0.6974265016393103  0.8267568685226270 -0.0000031573785715
  0.7209475739149865  0.6044506154167784  0.4999966183777332
  0.6422256766275861  0.7667842242654401  0.4999968498343129
  0.5985385645826338  0.5965448326081784  0.4999967899077256
  0.7647407821037786  0.7721148305881139  0.4999967046035285
  0.5741312928158870  0.8204681417714960 -0.0000029389560476
  0.3292822334823926  0.8019530895599601 -0.0000027929559643
  0.3515089659232247  0.5890985425454106  0.4999970678085352
 -0.0255045985220609  0.5011824624549027 -0.0000033204468375
  0.1563699683628886  0.6455123020063115 -0.0000030055965182
  0.0150728760864867  0.7701915472300652  0.4999968102554981
  0.1951317261022661  0.9067868332644273  0.4999970151705496
  0.8082105978546379  0.3426129206552721 -0.0000033445955624
  0.8444180656329822  0.1064323628177799  0.4999967150365525
  0.4930667851911055 -0.0172958480667662 -0.0000026441634714
  0.6589063131524050  0.1632778193899976 -0.0000028826769138
  0.5246777087951947  0.2577150604917248  0.4999972233711159
  0.6797845385578489  0.4351695935668401  0.4999965830018898
  0.8216745250035327  0.8313464446900733 -0.0000032472052140
  0.8422114351828739  0.6101359831297062  0.4999966472343114
  0.4872823836113611  0.4812028699825682 -0.0000029730058303
  0.6524391048959661  0.6588275969988104 -0.0000032618225453
  0.5204720477241106  0.7584407908420222  0.4999970970731212
  0.6866556174252497  0.9342213218620492  0.4999969738811244
  0.3235780465563288  0.3086561752324880 -0.0000028606484843
  0.3482212738836871  0.0837047195980345  0.4999923618677624
  0.0052248497307719 -0.0031301216258828 -0.0000033459953226
  0.1619205011701487  0.1569093562860119 -0.0000027725661670
 -0.0010970138055031  0.2683164142687080  0.4999971534878855
  0.1683545811990149  0.4231018076710545  0.4999981222565609
