POSCAR file written by OVITO            
   1.0000000000000000     
    25.4402782935416027    0.6715098048253089    0.0008131786975662
     0.4932779395508723   17.0883277414836243   -0.0007157095496346
    -0.0002982027400052    0.0003520798490142    5.1367285267382643
   Mg   Nd
    87     6
Direct
  0.2961914558848486  0.1535217804885558 -0.0052669326080873
  0.3816599669008602 -0.0049466294219546 -0.0052635580299682
  0.2570066776796375 -0.0129987595282105  0.9946661777768415
  0.5115490805133858  0.3249343675968954 -0.0052401120086930
  0.2845822019835900  0.4344192234285797  0.4947227151277325
  0.4502002303173439  0.2740751380763573  0.4947655623447457
  0.1347144320061710 -0.0248836355051169 -0.0054021836897644
  0.0442666445898098  0.1625946244088396 -0.0054276737781391
  0.5088742556574821  0.1054172207461850  0.4947332594869686
  0.4468175357301372  0.1663441706053222 -0.0052471258208483
  0.0310904503797356  0.4420897013041324  0.4946084409493637
  0.4008178735936683  0.4414804885197662  0.4947396015737827
  0.2167282873918207  0.3354790711041544 -0.0053010485555877
  0.2355086354742703  0.0828082244245329  0.4946667270957738
  0.1159850406503391  0.2480501062530557  0.4946404663735591
  0.1049829620125787  0.0744113837606794  0.4946108211508959
  0.2564077090513266  0.2560333048292324  0.4947125138372166
  0.0768435519265892  0.3329327826576300 -0.0053687367082404
  0.2734376283520142  0.6653541241035261 -0.0052945282313623
  0.3416370694821840  0.5108278955890256 -0.0052640453212335
  0.2216492518496548  0.5046764542080227 -0.0053025093444410
  0.4521189604870138  0.8304191265877500 -0.0053003864151404
  0.3224795787737643  0.9363741048676292  0.4947070457740042
  0.3920216812367892  0.7740114194860539  0.4947114115325205
  0.0923146797947944  0.5017160351620360 -0.0053575316968481
  0.0158185526794474  0.6457630881327824 -0.0054529233604739
  0.4585507420425245  0.6033501127439826  0.4947039505081115
  0.3976745443760232  0.6674109692004754 -0.0052796940576907
  0.0715021161365323  0.9094348938012157  0.4945365539686314
  0.4453825473361908  0.9420481880461190  0.4947273115947715
  0.2029665867165607  0.8163773573392447 -0.0053618079730243
  0.2141544782530795  0.6006925116213596  0.4946864678043805
  0.1442453617257839  0.7588103094321690  0.4946127239146283
  0.0855185396519792  0.6006397246517506  0.4946180840632388
  0.2689835951348902  0.7682057602072681  0.4946953822918455
  0.0770656703031272  0.8093033307399273 -0.0054395166943443
  0.7990817198177186  0.1486115298310717 -0.0056461278748560
  0.8762106811930116 -0.0273642438444664  0.9944286335403246
  0.7550074449798510 -0.0257395333074036  0.9944000135100967
  0.8973624648263081  0.3216558788986339 -0.0054638703514153
  0.7724660306341616  0.4246058334195296  0.4945700705891506
  0.8432010573688049  0.2543230428661555  0.4945163562842902
  0.6325641836739757 -0.0127934320374158 -0.0053408692470896
  0.5748702410980041  0.1562422974220060 -0.0052726426329405
  0.9863375547937692  0.0819397368588311  0.4945051689823803
  0.9243317164048562  0.1496783366104924 -0.0055331947761113
  0.5226620933685650  0.4316393077107823  0.4947492772872021
  0.8988540053429043  0.4260523946928654  0.4945418404553805
  0.7532798427712031  0.0761673067772701  0.4943327241209609
  0.6452877019775077  0.3117536664181410 -0.0053045870212485
  0.6355605922131173  0.0955276414553117  0.4947287037347200
  0.7129668508382609  0.2494838073753345  0.4946554733691312
  0.7652331758467451  0.6451283387826675 -0.0054785910210844
  0.8324355309859651  0.4822793544511205  0.9945247899398868
  0.7057415694730035  0.4835308906033674 -0.0053971651689658
  0.9469022475123411  0.8072220551543684 -0.0054994859113424
  0.8159532066316285  0.9123510015676517  0.4944243816993676
  0.8856028816296284  0.7501573995252517  0.4944861237951631
  0.5829064648249894  0.4847135764011247 -0.0052926398216408
  0.5197880489233896  0.6593878888261215 -0.0053208280719638
  0.9559114302195171  0.5918459777485585  0.4945155185990912
  0.8908639313829515  0.6424744399354482 -0.0055015446552545
  0.5704110718421940  0.9325731752515294  0.4946724354694112
  0.9399577007407923  0.9120933899521619  0.4944868638890042
  0.6983227111432564  0.8131976212420561 -0.0054507278594014
  0.7044065546863629  0.5899275907113066  0.4945752436054668
  0.6362248535249796  0.7592999498651893  0.4946117315821926
  0.5812663513849619  0.5948852427373357  0.4946649309826695
  0.7601779935434343  0.7524733260772277  0.4945137327690339
  0.5752905177428291  0.8237237483769438 -0.0053460523706896
  0.3267967041176884  0.8270787659916830 -0.0052914355284332
  0.3370131859269435  0.6113184153247944  0.4947264360282345
 -0.0361499678705556  0.4686151236399000 -0.0054288050357249
  0.1472308833105541  0.6550006901171669 -0.0053653031072485
  0.0129970510195198  0.7564941734648933  0.4945280035389162
  0.1968404357544808  0.9199985761207693  0.4946233845590520
  0.7695426147319691  0.3229172699555517 -0.0054155421327635
  0.8717440962229862  0.0758618956376178  0.4944232065093833
  0.5064006860702885 -0.0024678174866630 -0.0052815893064451
  0.5806704770559857  0.2645661262922951  0.4947264797882668
  0.6484048934828524  0.4221069340386568  0.4946691931469330
  0.8220375546207168  0.8072214682423792 -0.0055205677711564
  0.8298260504531643  0.5888914109788289  0.4945069270322162
  0.4600576109449852  0.4940383627215956 -0.0052703439832975
  0.6420575079234248  0.6510132919778097 -0.0053807854991182
  0.5135005850650789  0.7679899638144647  0.4946774426973496
  0.6929798983170531  0.9208063427450036  0.4945323775500191
  0.3547769422691850  0.3191322393226332 -0.0052569608117226
  0.3698425180924454  0.1237122054858556  0.4947475995648167
  0.0070124404574291 -0.0167962345722286 -0.0054837875626763
  0.1710287709902251  0.1659198169108466 -0.0053471208688931
 -0.0162511464092970  0.2663545531438061  0.4945556273596479
  0.1573543070358858  0.4185308791068412  0.4946757055364936
