POSCAR file written by OVITO            
   1.00000000000000     
    24.8609874745618988    1.8811161836752777    0.0000006201636545
     1.3419376795346845   17.4360136529632470    0.0000010793441200
     0.0000000702969083    0.0000003855660181    5.1600178541916488
   Mg   Nd
    86     6
Direct
  0.2927385109891845  0.1367918436659044 -0.0000031340415505
  0.3783473154633565 -0.0434290278419416  0.9999966220125218
  0.2566019673432575 -0.0248439631941814  0.9999968592895603
  0.4637362136065404  0.3066720332211242 -0.0000030977899830
  0.3034712164816794  0.4221615128533739  0.4999969817173287
  0.4064867955271786  0.2415059735325540  0.4999968949319190
  0.1314037362186384 -0.0151280067935807 -0.0000031159980839
  0.0390210380984793  0.1910334208947293 -0.0000026591447036
  0.4925904744883747  0.0873535007223357  0.4999967026197830
  0.4213496776904113  0.1415534139930347 -0.0000031916381457
  0.0278555593336180  0.4342138162591881  0.4999972325213550
  0.4329414391672877  0.4101859507034052  0.4999969904335773
  0.2026707726398870  0.3210126211737807 -0.0000038673322496
  0.2225470570058366  0.0677618702837709  0.4999969553345951
  0.1125213703195080  0.2574838407842369  0.4999970457675970
  0.0849060083393766  0.0922305630864961  0.4999971261926171
  0.2538843827053360  0.2382465407817663  0.4999968835092752
  0.0783361863939234  0.3457028921504343 -0.0000028330860232
  0.2868782043783086  0.6401563260239114 -0.0000030629381241
  0.3689607221612922  0.4770216049587063  0.9999970054429053
  0.2399733853677311  0.4817755534104409  0.9999968203196246
  0.4569668075540337  0.7988283213732886 -0.0000032338981664
  0.3202716903998206  0.9008990066388998  0.4999967995439450
  0.4020821137916756  0.7407726335001813  0.4999969928828369
  0.1072886357355447  0.5056415943793247 -0.0000034289685560
  0.0335640372157151  0.6749181415260965 -0.0000030644164677
  0.4818385667780012  0.5783789694128435  0.4999971309409802
  0.4138261142566408  0.6346957250362955 -0.0000029929444040
  0.0669701116971851  0.9263313868415866  0.4999969938882755
  0.4470204772462184  0.9064867627868791  0.4999967203183043
  0.2092827863260549  0.8085988394104552 -0.0000031754932688
  0.2238672554559117  0.5858781304052531  0.4999971276441191
  0.1456785874011078  0.7557314237834856  0.4999970260354901
  0.0938142646278021  0.5984055833405746  0.4999971198323803
  0.2739060475868473  0.7431846334810601  0.4999969469157564
  0.0818353520043823  0.8314975141210997 -0.0000031772945692
  0.7937614170834090  0.1666971341867285 -0.0000026570008240
  0.8705407329179248  0.0011099526913380  0.9999970570140574
  0.7465267200438769 -0.0029411778194899  0.9999970915674200
  0.9549610017469584  0.3697359558664373 -0.0000025031630655
  0.8115523815151962  0.2660818001331036  0.4999974892436039
  0.6214728171113975 -0.0107635460886305 -0.0000030934716930
  0.5472199149892736  0.1496784926818012 -0.0000032329288074
  0.8887086481513942  0.1036222320410708  0.4999972576168479
  0.9092075846876317  0.1930928255136767 -0.0000026127919244
  0.5689627406468656  0.4208733067952041  0.4999970487732929
  0.8951231218070175  0.4351791359744863  0.4999975205398985
  0.7181214960302605  0.3303928127990176 -0.0000027468890686
  0.6192910660854374  0.0964352033354987  0.4999968920966165
  0.6669237979457737  0.2661686239701634  0.4999971616135367
  0.5909489202445716  0.3163206040800356 -0.0000030592339103
  0.7800296107481746  0.6733522280804495 -0.0000029878038366
  0.8623502389379398  0.5237257340931820  0.9999973565486324
  0.7451499900823255  0.4976117201235766  0.9999970169384070
  0.9551162411965083  0.8420296056389601 -0.0000032204616244
  0.8171128069397380  0.9419613998714069  0.4999970038391369
  0.8949818876210253  0.7828143175386301  0.4999970109770977
  0.6254067658886419  0.4823026014227527 -0.0000030565134654
  0.5377010371259285  0.6406759894299454 -0.0000030243156381
  0.9704825554640412  0.6188379502838727  0.4999973906356021
  0.9058113626772812  0.6835484987957176 -0.0000030172805027
  0.5712486496494653  0.9238287954157037  0.4999968917703471
  0.9431043029249655  0.9374932514406319  0.4999969959646411
  0.6998831064774662  0.8297300336874452 -0.0000030673290849
  0.7307397732060290  0.6062909562949993  0.4999970921049789
  0.6491167987712231  0.7636560544355474  0.4999970385124144
  0.6089953003891926  0.5880307367065446  0.4999970576994439
  0.7711723602188588  0.7773033965757502  0.4999970248019249
  0.5768134896560873  0.8182149579661125 -0.0000030425840752
  0.3325913371033815  0.7964726105169780 -0.0000032918940190
  0.3550101567693689  0.5825966446132534  0.4999972025584051
 -0.0158986622133349  0.5258440751855836 -0.0000027999322852
  0.1600033798283871  0.6516432277322329 -0.0000030091018818
  0.0204378858086011  0.7728386645518097  0.4999970113725721
  0.1938463419169958  0.9075209935777135  0.4999968819668978
  0.8383963707009803  0.3537298355164623 -0.0000025025546281
  0.7477192796134490  0.1043218555581751  0.4999972322017143
  0.4961165113946561 -0.0192559115026334 -0.0000033249456049
  0.6710315102700742  0.1583726705350036 -0.0000029563663259
  0.5361739831961639  0.2547767159201465  0.4999968828603660
  0.8256046406600889  0.8387329784753303 -0.0000031427296719
  0.8502932889199087  0.6206882563990693  0.4999973021234890
  0.4982420225742429  0.4729597332423993 -0.0000030056268431
  0.6591125168228181  0.6547492689457411 -0.0000029892877745
  0.5272589534465434  0.7481325976561827  0.4999970175752039
  0.6941362195308258  0.9354810890055703  0.4999969376174927
  0.3293696710718013  0.3041620200856058 -0.0000029663085548
  0.3569344954944375  0.0752745993921634  0.4999970987027758
 -0.0025317143008200  0.0295065453410270 -0.0000030514339784
  0.1662263476784466  0.1607672687953454 -0.0000028586228891
 -0.0280462351558878  0.2548131113474806  0.4999973230146570
  0.1687102970907965  0.4143487094409171  0.4999960332099572
