POSCAR file written by OVITO            
   1.00000000000000     
    25.4995515270252895    1.5063242528095386   -0.0001407683955802
     1.0626669176469168   17.1402807451260948    0.0000986007014487
    -0.0000290357532083    0.0000318107151655    5.1605544403247121
   Mg   Nd
    87     6
Direct
  0.2879562385149688  0.1428798655643183  0.0000153254970025
  0.3772635514153068 -0.0308556832828772  0.0000033566921514
  0.2569682510964619 -0.0234468737103330  0.9999968670818583
  0.4572759507055787  0.3201900302794924 -0.0000021234813980
  0.2982834827457234  0.4304331582140487  0.4999977627002549
  0.3970125491526641  0.2525897934417692  0.4999952716688806
  0.1354493690726013 -0.0289036001985194 -0.0000025360947716
  0.0378781083496379  0.1650764513102298 -0.0000051462483218
  0.4838523644877502  0.0914127681638112  0.4999970825348945
  0.4181940342499014  0.1505750395130633  0.0000028769698748
  0.0372073249151434  0.4447044937788550  0.4999965619926098
  0.4232279260162555  0.4215885632524126  0.4999971874672156
  0.1971843795344009  0.3239218950643904 -0.0000295512587224
  0.2226614222628761  0.0696967127642810  0.4999946348063470
  0.1215807894641386  0.2552263832218900  0.4999984204480462
  0.0913277368116212  0.0809392441853861  0.4999966534898385
  0.2508805305033430  0.2455313040856850  0.4999989134853651
  0.0717076721325953  0.3345656259643905 -0.0000034702572542
  0.2838051873698332  0.6456491639200928 -0.0000030089462122
  0.3625204805784124  0.4875448743247133  0.9999973007131284
  0.2371462408977377  0.4859431618026143 -0.0000104007997206
  0.4547944934679084  0.8122378660542753 -0.0000027299574164
  0.3195896108606880  0.9089146447687814  0.4999967890359701
  0.3989522919215894  0.7535873366355563  0.4999970441618399
  0.0980289583166691  0.4994793269806770 -0.0000135521875293
  0.0221843265192064  0.6541137837320596 -0.0000036933551489
  0.4732562472811597  0.5916784913171297  0.4999968590523869
  0.4083925758147012  0.6476253810444020 -0.0000024336703521
  0.0734260239291411  0.9100575629084700  0.4999958964702385
  0.4421481492707204  0.9211533154547507  0.4999961182839623
  0.2082234931971670  0.8035200660967963 -0.0000027570409882
  0.2234084665859484  0.5922880012338250  0.4999972438695092
  0.1478922809254934  0.7516006710087548  0.4999970703635452
  0.0899540540807684  0.6017364846818561  0.4999980271493090
  0.2744305715041119  0.7491848444412011  0.4999969282808066
  0.0819958191060459  0.8091475023075306 -0.0000031698916895
  0.7925315941796059  0.1785631873951913 -0.0000035204097413
  0.8745614659904904 -0.0079455392490605  0.9999966128723452
  0.7493575702964412 -0.0030679583196096  0.9999962410043250
  0.9124536448671173  0.3407435785505383 -0.0000029746227743
  0.7926228815292632  0.4322479497409564  0.4999965000658161
  0.8641489466048583  0.2688023607189665  0.4999968217474657
  0.6235007159748552 -0.0057650948733315 -0.0000030393767632
  0.5459689628966051  0.1612976625344281 -0.0000024202507748
  0.9669242044270387  0.0900874767014584  0.4999988050548018
  0.9166129568734205  0.1637562597791225 -0.0000028525973240
  0.5489415342523760  0.4251542319252568  0.4999962785713308
  0.9119593117975522  0.4422829158413641  0.4999971083081628
  0.7281194890851075  0.0980642710646934  0.4999960774123119
  0.6305203008810610  0.2728398215855863  0.4999956098624506
  0.6064299476178028  0.0997421082069289  0.4999964497025212
  0.7465631887249812  0.2692705309391031  0.4999968362285691
  0.7720602232971192  0.6634729330698261 -0.0000032468767249
  0.8391217051041638  0.4997386344468976  0.9999965514232587
  0.9479583973566802  0.8195953551091570 -0.0000035132765320
  0.8107626041408104  0.9321270546214350  0.4999963456654546
  0.8872258948351274  0.7663174545789714  0.4999962842655096
  0.6121985662222081  0.4825345217933830 -0.0000028405139235
  0.5311327981614303  0.6524073997848983 -0.0000030209273545
  0.9628426532131646  0.6057334928474998  0.4999962854858042
  0.8961498813254624  0.6588093646323451 -0.0000035827479887
  0.5662391825747942  0.9304345036375962  0.4999968698786745
  0.9364661938797154  0.9249124955662290  0.4999969192638392
  0.6984064381971600  0.8270733669509254 -0.0000032474954373
  0.7182406507974700  0.5948124589349769  0.4999959893167362
  0.6425552893180435  0.7649543943547295  0.4999966992740054
  0.5960129889798056  0.5936206909929090  0.4999967330629246
  0.7636402791101178  0.7680817738711381  0.4999967185404814
  0.5763515284872817  0.8228623267825016 -0.0000029434296112
  0.3303448790469507  0.8050062380557118 -0.0000025805188450
  0.3510959309098024  0.5926178875278285  0.4999973103736210
 -0.0289245984543079  0.4887445688954109 -0.0000032077341887
  0.1560738644257549  0.6432536072034377 -0.0000025836848608
  0.0152414403288589  0.7649851554210381  0.4999966421904240
  0.1971788599688697  0.9058777092508127  0.4999968059169236
  0.7359648634515678  0.3735197953627127 -0.0000030036948881
  0.8480722425886497  0.0963195724987413  0.4999966101415986
  0.4974199488943740 -0.0126590248060167 -0.0000032687903145
  0.6705064505694737  0.1697345269191510 -0.0000042519246939
  0.5166053256690128  0.2586557737362880  0.4999970208893150
  0.6726860374449112  0.4327142552209557  0.4999964909560892
  0.8221456820447453  0.8270593053206454 -0.0000038714644048
  0.8386665204600730  0.6041308838323870  0.4999965584813470
  0.4865733914184565  0.4895170929123408 -0.0000029110950202
  0.6521643531526999  0.6567659157615922 -0.0000032865005436
  0.5212845234587730  0.7608848908341392  0.4999968132733498
  0.6882841052131782  0.9338169560529533  0.4999965000761251
  0.3239565277059237  0.3124061798102608 -0.0000016501388704
  0.3503196416782228  0.0872565501984460  0.4999712908637482
  0.0076438085606768 -0.0107632007545641 -0.0000053691904047
  0.1640248106574704  0.1562320849958566 -0.0000022475120764
 -0.0073432369540229  0.2677827685064914  0.4999991349398782
  0.1668606127024284  0.4222092984006368  0.5000345556392380
