POSCAR file written by OVITO            
   1.00000000000000     
    25.0457061778195182   -1.2598695618231210   -0.0000000912906671
    -0.8931642734418763   18.3197202990325501    0.0000001171141959
     0.0000000075935695    0.0000000151566413    4.9407780418903178
   Mg   Nd
    89     6
Direct
  0.2948263547937160  0.1765856506843542 -0.0000031184552916
  0.3824042576696330  0.0042866857484322  0.9999968552422018
  0.2556708826749186  0.0056055973356324  0.9999968480183309
  0.4745380408856287  0.3382337023330275 -0.0000031460336020
  0.3022298553968981  0.4404582523540739  0.4999968671550214
  0.3864380329679280  0.2642844699552818  0.4999968582349384
  0.1293113903843548 -0.0119993619483730 -0.0000031511976177
  0.0419701577256215  0.1605360039069730 -0.0000031495056259
  0.4652861058120977  0.0870410389677537  0.4999968430949814
  0.4214413675293222  0.1768781880822323 -0.0000031425039286
  0.0394701619030723  0.4181860281130917  0.4999968415758079
  0.4252895352217485  0.4278789922687575  0.4999968492926625
  0.2117284255615856  0.3317076377044000 -0.0000031497668036
  0.2065945189762594  0.0691991679661655  0.4999968602387907
  0.1252556365590004  0.2468196081187355  0.4999968640936159
  0.0815744572414176  0.0769164250014603  0.4999968566666719
  0.2540314288570344  0.2546781833161539  0.4999968366114032
  0.0832652735902928  0.3304308930615122 -0.0000031452283993
  0.2942707991104347  0.6735895291282534 -0.0000031375606177
  0.3787595179638641  0.5208548864146566  0.9999968548459819
  0.2520167755624743  0.5027010257083339  0.9999968512898639
  0.4618190628419351  0.8487714487297094 -0.0000031410124109
  0.2939203148616185  0.9197560442818954  0.4999968517052634
  0.3795188634731668  0.7658036868196157  0.4999968490190340
  0.1239424502728488  0.5034248636890994 -0.0000031463013501
  0.0442223943249406  0.6592418492601113 -0.0000031389387455
  0.4625600149290310  0.5962849954330660  0.4999968403063824
  0.4207809959086689  0.6843238349001485 -0.0000031488676714
  0.0458828445992176  0.9032304295266953  0.4999968522505023
  0.4187307736366938  0.9286282446777853  0.4999968614629479
  0.2118292396070418  0.8344910220981232 -0.0000031451089371
  0.2137782842540365  0.5890907076832499  0.4999968560341105
  0.1258142664545389  0.7445700729367190  0.4999968472363138
  0.0873236418027218  0.5789294593779675  0.4999968607705992
  0.2530905621773529  0.7544515400155622  0.4999968300490186
  0.0838861032426940  0.8261250848776280 -0.0000031507940391
  0.7880842516369559  0.1615731850801664 -0.0000031484963778
  0.8684369647273734 -0.0057523323733050  0.9999968463553097
  0.7476032849416953 -0.0063679870470229  0.9999968517511784
  0.9517682957348277  0.3309055126142874 -0.0000031255430463
  0.7930433674492056  0.4141941503412810  0.4999968567240962
  0.8677982112148884  0.2441837113434367  0.4999968473135655
  0.6273649367420054  0.0005078237311110 -0.0000031497443278
  0.5484771146594833  0.1843322764860391 -0.0000031452113094
  0.9456914810569905  0.0723362741032395  0.4999968425153693
  0.9149602240182206  0.1592487688741972 -0.0000031470619592
  0.5498692702571282  0.4085726861616572  0.4999968491257090
  0.9165542083466318  0.4075374728728868  0.4999968366399471
  0.6965453063813959  0.3340564999919681 -0.0000031357858603
  0.7053633812689306  0.0791692494531615  0.4999968498671960
  0.6226495287389533  0.2633081287269995  0.4999968487327903
  0.5862866871855297  0.0944723887789589  0.4999968484653372
  0.7445043089606578  0.2488446628266159  0.4999968494322238
  0.7928742438905969  0.6624402715683568 -0.0000031519941629
  0.8733203946132091  0.4893250596647866  0.9999968506733924
  0.7489682573155778  0.4965673952249240  0.9999968462396046
  0.9595439879848560  0.8168263475883787 -0.0000031418300613
  0.7923883456223483  0.9118897413655429  0.4999968453651372
  0.8771902555089356  0.7399279724092057  0.4999968475635750
  0.6220608059555157  0.4841695814207335 -0.0000031303724140
  0.5447127167136108  0.6690280359181605 -0.0000031537046681
  0.9598872943421141  0.5737313098645653  0.4999968432664395
  0.9176694535475284  0.6535631199078391 -0.0000031593170100
  0.5455880010930241  0.9257820002508625  0.4999968511144258
  0.9183277028131899  0.9056689306126127  0.4999968457300209
  0.7098677755332991  0.8252622181933909 -0.0000031546599215
  0.7128732139123380  0.5848446115899082  0.4999968602544417
  0.6266996244423542  0.7439581722390021  0.4999968553826643
  0.5866845500155697  0.5769320137727552  0.4999968355325287
  0.7524021428021452  0.7471687356749248  0.4999968537593472
  0.5858946671063602  0.8348227295132018 -0.0000031513474015
  0.3361762008816349  0.8389761741578562 -0.0000031502423918
  0.3390788843738020  0.6043468930180484  0.4999968329347290
 -0.0025805014845208  0.4962732975077264 -0.0000031487612838
  0.1696090370991629  0.6688774095776632 -0.0000031506489234
  0.0018713072588536  0.7379071632288535  0.4999968492524683
  0.1700047341610715  0.9056387768236542  0.4999968432673348
  0.8243447588639800  0.3272605124205837 -0.0000031533418960
  0.8257425290463455  0.0789087340051940  0.4999968458365377
  0.5074769861133378  0.0125841753051679 -0.0000031468114026
  0.6668461852336016  0.1673080702679059 -0.0000031450557896
  0.5012925389414707  0.2472475137654278  0.4999968536379633
  0.6731976736333962  0.4236733828677785  0.4999968244221192
  0.8362165229188054  0.8277543022447778 -0.0000031519679839
  0.8360333374720466  0.5772804451368874  0.4999968528369612
  0.5012708127522275  0.5039726573404618 -0.0000031472832504
  0.6672844784632379  0.6570583149141992 -0.0000031646355647
  0.5033666348388413  0.7606039749941701  0.4999968593302322
  0.6685369334262354  0.9107106013197684  0.4999968562073403
  0.3376707993903639  0.3431261477163801 -0.0000031298589063
  0.3373248272423400  0.0969462429335927  0.4999967838275036
 -0.0010804069598263 -0.0054968016027046 -0.0000031431636333
  0.1684672159247176  0.1647467499822853 -0.0000031370204390
 -0.0005517105876420  0.2411698198672230  0.4999968475417646
  0.1704068196892083  0.4126309279340371  0.4999967610412205
