POSCAR file written by OVITO            
   1.00000000000000     
    25.6755547993275179    1.9376377691831066   -0.0000005947560940
     1.3596412613328577   17.0674391278534330   -0.0000017963305596
     0.0000002306665709   -0.0000005877984311    5.1758625213400711
   Mg   Nd
    86     6
Direct
  0.2860861367650028  0.1355474262928871 -0.0000028598962555
  0.3718502452365751 -0.0331238433619500 -0.0000026056000021
  0.2513092887517550 -0.0283611853893082 -0.0000029354390885
  0.4540710373106536  0.3186815029129075 -0.0000026449960976
  0.3023688060353765  0.4278592693301294  0.4999971390381316
  0.4010343154959202  0.2542472663384198  0.4999974233243311
  0.1296322475431288 -0.0308741264084393 -0.0000032427059502
  0.0337185396296968  0.1652015045910147 -0.0000026022578343
  0.4848200058401446  0.0897482240627099  0.4999976545038041
  0.4189232352829126  0.1488508346505744 -0.0000025261907079
  0.0403136247412209  0.4493544738908181  0.4999965109882466
  0.4281428135288250  0.4226270008568788  0.4999973070732648
  0.1965266089585289  0.3209492030885024 -0.0000026913159832
  0.2257803222849958  0.0711734686805444  0.4999973412133696
  0.1277238137599432  0.2575298187918841  0.4999970325794173
  0.0892664317701483  0.0833032776270306  0.4999966676879637
  0.2525210954838285  0.2443359689392186  0.4999971323714832
  0.0728992943606750  0.3358164009419711 -0.0000032213773128
  0.2847619754486449  0.6437756340071608 -0.0000027626973646
  0.3647853946308385  0.4815661334115861  0.9999972800762030
  0.2395438190241397  0.4833443239901638 -0.0000027870649553
  0.4518581475319124  0.8080670560123018 -0.0000027232403857
  0.3169349392317274  0.9114328602825560  0.4999973137557489
  0.3972353684262234  0.7511336581374354  0.4999972924975222
  0.0992098517636074  0.5013041320064771 -0.0000030991205702
  0.0209507048169746  0.6592769427735435 -0.0000034856168317
  0.4751758862024019  0.5887259389088864  0.4999971918582454
  0.4089319892657640  0.6429647234464971 -0.0000027191640060
  0.0696512699332196  0.9130303218176533  0.4999964973624534
  0.4392952226635034  0.9169455341845436  0.4999973833278358
  0.2058115710078108  0.8024910941746494 -0.0000029985986953
  0.2254474535123032  0.5930730538757712  0.4999970526492493
  0.1470279337699365  0.7541449835317976  0.4999968767870249
  0.0899054131444536  0.6064937075883778  0.4999966717998187
  0.2733788687412044  0.7503444454329347  0.4999971464797559
  0.0791070533526227  0.8093304474266534 -0.0000033135583760
  0.7801156500568202  0.1629447487035979 -0.0000038226639405
  0.8667054644020602 -0.0036661077613562  0.9999962922833665
  0.7385814027932616 -0.0036632448183219  0.9999961849609126
  0.9304875648240448  0.3433636366965282 -0.0000032410802554
  0.7947677714608684  0.4413942389960328  0.4999958537430862
  0.8750906358327516  0.2775653472686613  0.4999961555112518
  0.6135605280260418 -0.0101271461114196 -0.0000032590521736
  0.9632769659427385  0.1002377299135857  0.4999961710305473
  0.9087778691893056  0.1714924011290961 -0.0000036674480335
  0.5555525804211010  0.4246312605325384  0.4999973053054427
  0.9172209786988612  0.4463822287056677  0.4999961835852649
  0.6913929603257133  0.3182615167841750 -0.0000033986887313
  0.7207635059483445  0.1053037366526018  0.4999960204082124
  0.6392626723862043  0.2644193702633538  0.4999969076405205
  0.6018875657835544  0.1000126939829582  0.4999966372992395
  0.7574494336258755  0.2724121005306391  0.4999963035336121
  0.5742616200443035  0.3141680601095072 -0.0000028639582353
  0.7708377166577006  0.6632470387160554 -0.0000035935792781
  0.8480898329342879  0.5022797242672232  0.9999961080744179
  0.9426299967225208  0.8256402293936063 -0.0000036607388785
  0.8051851707558002  0.9389569755340536  0.4999962426055171
  0.8837924800172372  0.7730892161238492  0.4999962697599234
  0.5311489117483876  0.6481997212766121 -0.0000029547154447
  0.9624851693809598  0.6123107769426192  0.4999963752317746
  0.8945397342244248  0.6650539513265999 -0.0000037130490303
  0.5623972681641779  0.9276142144236728  0.4999969681598577
  0.9305237836931617  0.9339332678497340  0.4999962629841985
  0.6934279363289082  0.8260316263196286 -0.0000034579587122
  0.7182003848811176  0.5988128962359138  0.4999966845391499
  0.6404501983816413  0.7636653735812449  0.4999967431236526
  0.5967383007979755  0.5904930307785824  0.4999968879865014
  0.7611199551536689  0.7714235309272833  0.4999964073455751
  0.5719837801506038  0.8181741021500629 -0.0000030774977363
  0.3282042000650351  0.8038260840099972 -0.0000027412007888
  0.3524549448371793  0.5899869052213419  0.4999972759063072
 -0.0255863652111446  0.4980346166292943 -0.0000036053294944
  0.1567026586463290  0.6423856232722792 -0.0000030750902814
  0.0115899598095552  0.7716563597406044  0.4999964847025659
  0.1931210660582187  0.9104731996598949  0.4999969389184391
  0.8090170708894022  0.3343168330355901 -0.0000038782898424
  0.8438565277871404  0.1046429286628596  0.4999962117827880
  0.4898608009147485 -0.0175805899802000 -0.0000025635928576
  0.5206403668572194  0.2555452540221502  0.4999972352152206
  0.6756706565117792  0.4343034672641543  0.4999964388446073
  0.8163874677649661  0.8305269683569552 -0.0000036982346761
  0.8391501236832996  0.6083755387495241  0.4999962153036454
  0.4912841248750897  0.4835536712816627 -0.0000027278435093
  0.6513315370121820  0.6508046338090132 -0.0000032542656802
  0.5196066570165270  0.7568757626627588  0.4999970889253955
  0.6831657447638670  0.9370435438600669  0.4999964647627607
  0.3233767337505746  0.3061467628170496 -0.0000026730482571
  0.3552587947806700  0.0892717929265859  0.4999977764281651
  0.0019069657048757 -0.0079591973414371 -0.0000032580696507
  0.1601303922735433  0.1526969517471540 -0.0000035529735627
  0.0022858639152581  0.2695418820136481  0.4999952141028614
  0.1699064762925995  0.4256137423097268  0.4999963868307134
