POSCAR file written by OVITO            
   1.00000000000000     
    24.9960539752494242   -1.2693743353429519   -0.0000001163746311
    -0.9023338961535772   18.3458805126288489    0.0000001167164482
    -0.0000000141972073    0.0000000181196104    4.9428481841245864
   Mg   Nd
    89     6
Direct
  0.2979648508591013  0.1720896333126334 -0.0000030814373334
  0.3704018382292016 -0.0107133049788015  0.9999969066038588
  0.2528681528196990  0.0048531843353032  0.9999969122962560
  0.4694045575679950  0.3376605876659745 -0.0000030858715415
  0.3015694716978863  0.4427807885249668  0.4999969086223910
  0.3895182160941130  0.2678385944674481  0.4999969104363787
  0.1276791945379592 -0.0115101730286540 -0.0000030850775271
  0.0440437483069702  0.1580722103996239 -0.0000030842412648
  0.4244064492388899  0.1764431539495871 -0.0000030890328711
  0.0397284598319296  0.4169036552592512  0.4999969065781376
  0.4223716034475757  0.4317043511970755  0.4999969126743855
  0.2115990891559434  0.3297468203391131 -0.0000030603436314
  0.2125560686073468  0.0731001398145788  0.4999969085055440
  0.1277428507317839  0.2446272477943852  0.4999969100952757
  0.0823745414999991  0.0752417892779244  0.4999969171504446
  0.2565230031662001  0.2528296801515431  0.4999969048877551
  0.0852659547792753  0.3280310596703366 -0.0000030775050434
  0.2931530352504177  0.6674128314353489 -0.0000030917230568
  0.3778887046569604  0.5226048005271583  0.9999969083248819
  0.2505264956455902  0.4999603299148584  0.9999969082056003
  0.4623852407848683  0.8530126573596499 -0.0000030865095757
  0.2969544420311708  0.9195797697909286  0.4999969092996549
  0.3840159152318444  0.7718476756089085  0.4999969046800389
  0.1235367271775540  0.5016885861879100 -0.0000030707622756
  0.0457174936109577  0.6591844254944401 -0.0000030816269763
  0.4630163641772251  0.5972966499187424  0.4999969091681403
  0.4211940972379605  0.6864710295648362 -0.0000030897218315
  0.0448591817660311  0.9027549715418538  0.4999969126878777
  0.4233001688877428  0.9407449268400523  0.4999969152708432
  0.2109313493677910  0.8331953239454384 -0.0000030883341262
  0.2150929150079680  0.5874923690011135  0.4999969038569660
  0.1283525880402584  0.7458688820920591  0.4999969072067635
  0.0876352190833385  0.5787664036729948  0.4999969117567036
  0.2558445660215389  0.7530260025376475  0.4999969099264445
  0.0844765198522128  0.8260966625467593 -0.0000030867195287
  0.7911207761161506  0.1637061393172697 -0.0000030867604619
  0.8627994028832906 -0.0015005946984425  0.9999969064651311
  0.7383633315575739  0.0008356755933845  0.9999969113190975
  0.9580654875509571  0.3316739668739033 -0.0000030781335115
  0.7919177176825997  0.4114118037074753  0.4999969086783679
  0.8711370339032098  0.2379717037111654  0.4999969100310199
  0.6133381057463456  0.0070263247400044 -0.0000030859848187
  0.5513581810543327  0.1781764244959008 -0.0000030912377844
  0.9394721865732342  0.0726861625007337  0.4999969143852182
  0.9176295658620851  0.1604209604521104 -0.0000030949123655
  0.5442823838288879  0.4125293710546344  0.4999969114551714
  0.9166146201130680  0.4040810280363850  0.4999969138898877
  0.7123902781910930  0.3336590892690971 -0.0000030891207416
  0.6918893281018099  0.0822165922068441  0.4999969023291976
  0.6263046524643596  0.2483687662063813  0.4999969076356001
  0.5662202310391262  0.0885883461222377  0.4999969135053930
  0.7491208713841073  0.2435452319935540  0.4999968985361744
  0.5914563912997309  0.3384018255634187 -0.0000030851064295
  0.7952140322833210  0.6637206735909438 -0.0000030938851026
  0.8748519066123129  0.4893995065813948  0.9999969139057352
  0.7514233591442464  0.4991306408132085  0.9999969065964732
  0.9609274879328529  0.8153563059857900 -0.0000030849673201
  0.7889617876633953  0.9129573346578584  0.4999969091782815
  0.8792338938805357  0.7381757946125758  0.4999969031856855
  0.6272576855691117  0.5027386559653610 -0.0000030873124406
  0.5457728219840298  0.6692531312250790 -0.0000030889315472
  0.9590386562943330  0.5718934687852000  0.4999969001808530
  0.9193932955467501  0.6524236153649327 -0.0000030847626858
  0.5430543454375830  0.9234322432464610  0.4999969106710377
  0.9161862934347659  0.9055304323882449  0.4999969086255676
  0.7132734995133140  0.8308249490276175 -0.0000030891127474
  0.7102874036598152  0.5827659672295253  0.4999969082593929
  0.6291598626761346  0.7479503247390537  0.4999969043253956
  0.5856252229836534  0.5825465563017383  0.4999969139683609
  0.7544200239762825  0.7464405507856651  0.4999969076969650
  0.5879623539150842  0.8349375058557378 -0.0000030903897105
  0.3336935260628280  0.8280823204713132 -0.0000030881586124
  0.3415796532360736  0.6083371304133307  0.4999969067615542
 -0.0015782328755872  0.4975495273256060 -0.0000030765073517
  0.1700775206837794  0.6669025410158340 -0.0000030944645760
  0.0038165122792583  0.7359176836298085  0.4999969093240619
  0.1712407300523470  0.9092137729280502  0.4999969133245696
  0.8341127289794835  0.3259767523935430 -0.0000030866459554
  0.8151723334842083  0.0781833577047724  0.4999968950868998
  0.4891309929837901  0.0263884688521654 -0.0000030812329556
  0.6703633112727846  0.1698147367452283 -0.0000030800153640
  0.5011012081597200  0.2333328470539744  0.4999969168794395
  0.6683433190592916  0.4166898678176761  0.4999969106525028
  0.8388563034749911  0.8293198365884685 -0.0000030889291319
  0.8344847756581800  0.5761497262183455  0.4999969109701196
  0.5016607251217472  0.5043082170136336 -0.0000030872398432
  0.6706539701083706  0.6664095365793040 -0.0000030933078838
  0.5055306301189607  0.7597894418688095  0.4999969120808686
  0.6651360005624035  0.9153908718069799  0.4999969097087119
  0.3363307003107326  0.3435679915919282 -0.0000030843137281
  0.3492765396827381  0.0955951989308675  0.4999968979065298
 -0.0041819619387291 -0.0056989224717740 -0.0000030940326766
  0.1699853986311862  0.1637844867171821 -0.0000030867756337
  0.0024010020410352  0.2386093395638576  0.4999969142573885
  0.1707993265875736  0.4108683038057108  0.4999968771368657
