POSCAR file written by OVITO            
   1.00000000000000     
    25.0761556952417095    1.2648267933270798    0.0000021768831975
     0.9009016903487573   17.3370115590606986   -0.0000057857865093
     0.0000006670477781   -0.0000016295031712    5.1259969813016601
   Mg   Nd
    86     6
Direct
  0.2991521662987193  0.1436696631357337 -0.0000029114336459
  0.3772174084112681 -0.0282768023173978  0.9999969642888336
  0.2553869472344971 -0.0206104828081393  0.9999970361727148
  0.4790573772387736  0.3220165129459222 -0.0000034118273774
  0.2917696892771041  0.4295421984019185  0.4999969115759942
  0.4299453269646709  0.2510213973694905  0.4999966976673800
  0.1304035565374564 -0.0209836071757406 -0.0000026121653738
  0.0485326865733989  0.1721981534627170 -0.0000023825575349
  0.5067523225722780  0.0937767761125822  0.4999980873774398
  0.4322550154402776  0.1538537458184046 -0.0000030225644787
  0.0296093307589038  0.4295780566322351  0.4999973523593211
  0.4139256311122140  0.4261234914213241  0.4999967167625447
  0.2123925691379241  0.3235475358835999 -0.0000029714349516
  0.2332552117449260  0.0733624432998957  0.4999970637149134
  0.1229224120005828  0.2465450712912911  0.4999973265253221
  0.0923096267139733  0.0806122560628287  0.4999974260135402
  0.2601076272943266  0.2449846345717040  0.4999969638655534
  0.0850882641944758  0.3318634126847962 -0.0000026642543445
  0.2750777198966225  0.6540934003024459 -0.0000029785372777
  0.3525220410448517  0.4997164946390295  0.9999968558844309
  0.2291176423449453  0.4924712337961510  0.9999970844440559
  0.4510649994218467  0.8141887989570304 -0.0000029791388371
  0.3191843881490929  0.9170406012308876  0.4999969794494807
  0.3935044203002665  0.7582464223667864  0.4999970243857360
  0.0948872902914792  0.5007236078703251 -0.0000027165193071
  0.0224299455487825  0.6643327752554944 -0.0000026523924215
  0.4664421354047714  0.5932018852369049  0.4999968256395145
  0.4011396255165781  0.6547121229588920 -0.0000030596159289
  0.0659653314058986  0.9169380275852347  0.4999973952695795
  0.4446156131421504  0.9202454299995144  0.4999971416105328
  0.2014571708790621  0.8124960668672050 -0.0000028022708249
  0.2147537029417728  0.5928362063138229  0.4999971308004246
  0.1404055202578569  0.7565943861133371  0.4999971948433271
  0.0847746772133827  0.5945079391535004  0.4999973208673723
  0.2671141979026269  0.7566956914884420  0.4999970675153158
  0.0752348098390605  0.8228688132804544 -0.0000026871384756
  0.8032196273403360  0.1563171661730701  0.0000011359386774
  0.8725778027935447 -0.0084084535396975  0.9999976232111210
  0.7474307447814827 -0.0041079030357233  0.9999985407502774
  0.9625120215849450  0.3519424805892765 -0.0000021391876222
  0.7842194706878173  0.4249941238841154  0.4999961627788823
  0.8399647464939204  0.2477465340749341  0.5000004645905906
  0.6202514303274407  0.0002592577111626 -0.0000027652053962
  0.5544675395042695  0.1641367598824117 -0.0000008818651884
  0.9043235078210702  0.0895528501767457  0.4999978063382390
  0.9201358805641339  0.1830133101052461 -0.0000020512174264
  0.5392956120669752  0.4095726346149477  0.4999967705345633
  0.9070244547315182  0.4261866503201709  0.4999978636535636
  0.7280157866675605  0.3124639782114009 -0.0000329756970316
  0.6044535983563825  0.3225845770724587 -0.0000015112182950
  0.7690916171223494  0.6645193102831241 -0.0000030258720091
  0.8452466871254356  0.5083638228641568  0.9999972920974266
  0.7210484097907377  0.4925324143939804  0.9999954819695176
  0.9488110258615029  0.8285438689277026 -0.0000025562737122
  0.8138145660360329  0.9398023974603416  0.4999978520101295
  0.8860826926148787  0.7718122915528656  0.4999973782784301
  0.5975559550176668  0.4960331956649210 -0.0000050227751283
  0.5248006985248586  0.6557429723695536 -0.0000034135327636
  0.9595125679124998  0.6094341197625879  0.4999972588950968
  0.8938575504796017  0.6709999033453219 -0.0000027047146750
  0.5689836841963515  0.9260203530531844  0.4999971896277007
  0.9413941579810468  0.9231749707324284  0.4999975155169852
  0.6946676137593072  0.8312045259124697 -0.0000028081283083
  0.7138284908475268  0.5966134015349090  0.4999961574985264
  0.6403542819545174  0.7644791569421759  0.4999967608097537
  0.5906443499085613  0.5944999381699325  0.4999958739311278
  0.7619454600273299  0.7709489627359600  0.4999972275349560
  0.5725875378993560  0.8232333986162308 -0.0000030377228632
  0.3252679854720426  0.8116113220854341 -0.0000029530643713
  0.3420221471488711  0.5993683266329729  0.4999969356005251
 -0.0320385769078645  0.5166505349091884 -0.0000027954357976
  0.1486993246954709  0.6518313067966386 -0.0000028044837517
  0.0142317104153655  0.7638073598497300  0.4999974134449961
  0.1921755081149728  0.9157598304660443  0.4999972533334515
  0.8451023632945086  0.3381721662280045 -0.0000001240082457
  0.7452966607007953  0.1110440648317054  0.5000008411359236
  0.4967233938420713 -0.0097245266284442 -0.0000024528557180
  0.6769318893757494  0.1563480602542328  0.0000011733728472
  0.6136988457565151  0.2174132991813746  0.4999998910279661
  0.6618713347158942  0.4140249251327343  0.4999914507673378
  0.8199871283074184  0.8312189036523062 -0.0000025167858739
  0.8369917346939639  0.6060424560967942  0.4999972384245490
  0.4752791067158589  0.4942198138315794 -0.0000031950847087
  0.6476165930146189  0.6588303197137352 -0.0000036678434175
  0.5174403905533022  0.7599704369605266  0.4999968471888602
  0.6893376088355331  0.9417012044772405  0.4999977149012048
  0.3432844926347318  0.3139734955185534 -0.0000032535872884
  0.3676774749903891  0.0919890288199912  0.4999970098267803
 -0.0002200155098329  0.0142948283204064 -0.0000023366757438
  0.1725703522621601  0.1577087582525415 -0.0000028212694999
 -0.0095216132736954  0.2419670958266827  0.4999979655120605
  0.1624898703633302  0.4138868060190785  0.4999971438201271
