POSCAR file written by OVITO            
   1.0000000000000000     
    25.4325935713557492    1.5994455836122041   -0.0000216244043635
     1.1430424319674619   17.2656230288542218    0.0000182649404097
    -0.0000047296035971    0.0000058308037265    5.1644478410637973
   Mg   Nd
    88     6
Direct
  0.2898959957394521  0.1395659476340088  0.0000006756702914
  0.3760989992685737 -0.0363376003439740 -0.0000021241116444
  0.2558246953072017 -0.0258957966977480  0.9999969864100586
  0.4551267935658119  0.3136096923238116 -0.0000030563422313
  0.2990473969366119  0.4277134266003783  0.4999971873400142
  0.3991265098163077  0.2473988175528962  0.4999964326588240
  0.1327536036737870 -0.0259282651969849 -0.0000030882147093
  0.0439713902289233  0.1690927358109998 -0.0000044132442652
  0.4844450811143211  0.0914380451656632  0.4999967115185194
  0.4164348589872273  0.1455095344620394 -0.0000022024251400
  0.0380259565723082  0.4387342332858647  0.4999968830397324
  0.4244029759704256  0.4177941468282557  0.4999969876708579
  0.1994203819783722  0.3204441427941279 -0.0000042479444272
  0.2233685719671692  0.0667576365613860  0.4999962067476597
  0.1253278424538716  0.2514643342787334  0.4999968710548385
  0.0886019959648749  0.0812089219163358  0.4999972590293336
  0.2531926590238966  0.2413614167695229  0.4999962221322634
  0.0749895713804355  0.3347041551134349 -0.0000029995116900
  0.2829492458108233  0.6436036902641912 -0.0000030660560347
  0.3628556215420885  0.4844672557141728  0.9999969428071900
  0.2367087669762808  0.4840173110420495 -0.0000031875455404
  0.4542898377157692  0.8089848950507595 -0.0000029430066594
  0.3181042321360991  0.9052663916610154  0.4999967261373990
  0.3987804138356179  0.7503191129774621  0.4999970162806114
  0.1016322772007438  0.4993800975049834 -0.0000031538739203
  0.0269331442097682  0.6614115636475889 -0.0000032112388249
  0.4749952981743816  0.5899416817261487  0.4999969938819122
  0.4085602303066688  0.6437821061425588 -0.0000029886757055
  0.0684060987701715  0.9135290716462413  0.4999967576242639
  0.4423425065010497  0.9174788375174333  0.4999965050184916
  0.2068918371082510  0.8046361412334919 -0.0000030655995415
  0.2215744179555451  0.5898910768757314  0.4999969178511363
  0.1444957487040439  0.7522789393955126  0.4999968841957051
  0.0901694448071308  0.5969360826554585  0.4999971603343333
  0.2722835003157474  0.7470553131402800  0.4999969795208953
  0.0801714028503469  0.8180108682035521 -0.0000031812515507
  0.7931687916746443  0.1748284270414754 -0.0000031254740811
  0.8746121893282168  0.0081363125231309  0.9999970833363632
  0.7492603546975027  0.0022247118452978  0.9999969559962062
  0.9422352740336037  0.3506884273678976 -0.0000032475713573
  0.8732226926538661  0.2765661448086167  0.4999969860465143
  0.6219774376123458 -0.0057323303234778 -0.0000029913929125
  0.5418331389370417  0.1532527215871046 -0.0000028964737455
  0.9322067743057645  0.0971209040447145  0.4999965614747461
  0.9196692889873680  0.1846319610085437 -0.0000027352562123
  0.5539094022647074  0.4306289897448574  0.4999969010105999
  0.9187728486812557  0.4426978880324948  0.4999972909409146
  0.6946493255076223  0.3387422150199993 -0.0000029066332233
  0.6407289327461212  0.2719190713767179  0.4999969893712040
  0.6092112983526881  0.1005298584611598  0.4999970752843295
  0.7569371634564688  0.2846602300331380  0.4999970363318763
  0.5749492161754658  0.3250633385641161 -0.0000030225275072
  0.7796692507934421  0.6724907544792885 -0.0000030990270703
  0.8559637048842687  0.5150446661220046  0.9999969580210478
  0.7336813846892629  0.5068198674445125  0.9999969631434720
  0.9522013169930539  0.8300974389100304 -0.0000032411523538
  0.8155188769030550  0.9462828456592915  0.4999969622310567
  0.8892065386515454  0.7732289709771625  0.4999970442854916
  0.6103807279439966  0.4960928872911496 -0.0000030355118233
  0.5315081515157154  0.6529077502664584 -0.0000030015169251
  0.9610743909722773  0.6093115125926812  0.4999968064265043
  0.9005534258108259  0.6734141046099431 -0.0000031529406419
  0.5670216134308710  0.9322709971520108  0.4999970876317997
  0.9409947008458817  0.9256314318921933  0.4999969500259223
  0.7005734882906858  0.8340491102595283 -0.0000029578352354
  0.7248075304189111  0.6126386489382083  0.4999970899126385
  0.6451096079348443  0.7728440809411874  0.4999970532639075
  0.5995971374940476  0.6025938162686600  0.4999970279461418
  0.7674610588950312  0.7795212516508939  0.4999971770604816
  0.5761595086100609  0.8246973936488551 -0.0000030003332564
  0.3295351913408149  0.8013669233564661 -0.0000031052380195
  0.3508923385169737  0.5899119326589747  0.4999969293724791
 -0.0226980035673723  0.5088087541690803 -0.0000031754865253
  0.1555404002560617  0.6461200307715064 -0.0000031683898963
  0.0162065173841471  0.7628843367363914  0.4999968998246094
  0.1935705981254570  0.9060422273042468  0.4999968898488704
  0.8168671997105000  0.3476962317081331 -0.0000029947451385
  0.7371972821344842  0.1089814868794206  0.4999970898360168
  0.4948418119866510 -0.0148982018051791 -0.0000030598415918
  0.6664929903325013  0.1640192352216520 -0.0000030066215889
  0.5218836989541479  0.2599616739927287  0.4999968710200463
  0.6778129321960330  0.4446607506177609  0.4999969177141253
  0.8262508808584113  0.8387512598563368 -0.0000028940146635
  0.7995708435674083  0.4521291292740167  0.4999968276626111
  0.4873058870275395  0.4839829514764519 -0.0000030887211577
  0.6551238099198161  0.6648586443792034 -0.0000029110003354
  0.5223631209235178  0.7615241480734823  0.4999969442061541
  0.6910511538829638  0.9424596866825545  0.4999969352920744
  0.3250015633841787  0.3092508163697322 -0.0000030662759436
  0.3510980245210711  0.0815559604826662  0.4999895536871616
  0.0036340013054217  0.0082719291669610 -0.0000029109953037
  0.1664192582138593  0.1541749022556935 -0.0000027417401623
 -0.0002518051471571  0.2530693045358745  0.4999994525360801
  0.1682146678099595  0.4167604743386597  0.4999992590926757
