SCAR file written by OVITO              
   1.0000000000000000     
    22.9802706121215650   -2.8882321692473969   -0.0000147110411311
    -1.9491041960115156   19.1099813075873435    0.0000010994829597
     0.0000017598216685    0.0000008170497988    5.1089609854210387
   Mg   Nd
    86     6
Direct
  0.3285815848433608  0.2407724192453234 -0.0000035638964794
  0.3834065407079374  0.9993415549762538  0.9999969167975853
  0.2751206573363653  0.0620051531247724 -0.0000033562808477
  0.4693940787125520  0.3214056789767429  0.9999965289728846
  0.3220185246897127  0.5375477320666913  0.4999971809631006
  0.4009897196819842  0.3274326416108234  0.4999969729166756
  0.1394702059306841  0.9981862315522007  0.9999969629258585
  0.0376806136710556  0.1267602901924808 -0.0000048624944525
  0.4970502560613366  0.2341692328700738  0.4999968031137373
  0.4394943781821360  0.1580240506309949 -0.0000035453265801
  0.0197254559110204  0.3806248498149898  0.4999970664401149
  0.4378829332409279  0.4912154925593409  0.4999967001862283
  0.2122288235516774  0.3457744701914287 -0.0000032836105648
  0.2083697538168489  0.0733637488477024  0.4999966291904583
  0.1329752131515730  0.2509754813694919  0.4999973755041792
  0.0787598943894370  0.0659370988127111  0.4999976057203513
  0.2669451919649152  0.2905046000599678  0.4999970432217643
  0.0801964756175352  0.3142880201957042 -0.0000037573110200
  0.3011936636000506  0.6704066163115198  0.9999970029266730
  0.4057262192800445  0.5835931108777040  0.9999968619840505
  0.2528511477319658  0.5123874579015658 -0.0000033832525459
  0.4869494950622280  0.9116915685790015  0.9999967595995910
  0.2924603435157959  0.9648803810479166  0.4999965983121822
  0.4063815417574570  0.8994154546211384  0.4999968500268862
  0.1330109243139664  0.5341343106110735 -0.0000031326376186
  0.0436755632679328  0.6409824037515361  0.9999969300592473
  0.4750731520802765  0.6556829411500518  0.4999970004050572
  0.4472230677167414  0.7461918026973093  0.9999970762434299
  0.0040459439525040  0.8195821015689113  0.4999969233541090
  0.4589231940680892  0.0654414025413702  0.4999967141797250
  0.2215733963929832  0.8862032675095424  0.9999968894082621
  0.2105342018676443  0.6152633418323230  0.4999969088879734
  0.1079372211665668  0.7258834523453067  0.4999969321975136
  0.0656244396124086  0.5495235200770457  0.4999968821518495
  0.2518150192204939  0.7923176034813983  0.4999968918139295
  0.0829919236435706  0.8165380383601563  0.9999970068207206
  0.7695304719836419  0.0586627515257219  0.9999967256608172
  0.8599670095371017  0.9653452260096937  0.9999967707632793
  0.7265246365892767  0.8879674286426052  0.9999968263823996
  0.9494630507043869  0.2970816125616530 -0.0000042825589084
  0.7804846869369128  0.3931423123270320  0.4999968338959606
  0.8383358401724100  0.1358574446971529  0.4999976227433598
  0.6332737916145919  0.9827745216321284  0.9999966740134912
  0.5767462893258747  0.2422385020250445  0.9999969615160608
  0.9367142138844212  0.0374725864771537  0.4999972291069294
  0.9083181418470471  0.1261342175455414 -0.0000042987260278
  0.8804618612921388  0.3048582043026047  0.4999976468029086
  0.7153841426191115  0.3191791482601878  0.9999968749883962
  0.6939260500718319  0.0624292702814706  0.4999968405441891
  0.6375458076043155  0.3170827134491312  0.4999966002271698
  0.5977257900110748  0.1512383257439809  0.4999966416942898
  0.7380205624139421  0.2282136770769957  0.4999967764023013
  0.6152933569491051  0.4126993702178668  0.9999970813908944
  0.7969001680110687  0.6456920767468872  0.9999968982482267
  0.8584305298294777  0.3963488562718614  0.9999966365882806
  0.7573977772578728  0.4839174352644187  0.9999966420535590
  0.9455146190925899  0.7423292886291771  0.9999969536522784
  0.7537595957549964  0.8037068460220531  0.4999967544092773
  0.8605728577528111  0.7203715322452083  0.4999968715869061
  0.5504935168641519  0.6512400168251293  0.9999970440548467
  0.9220164068925274  0.4754799771821938  0.4999970110932331
  0.9021753269490593  0.5683729238217656  0.9999967064450863
  0.5555363444524388  0.9831817013424078  0.4999969170559955
  0.8929677423183672  0.8818518553196827  0.4999968915527603
  0.6895750182053336  0.7194596636076948  0.9999970448986830
  0.6149211499702514  0.7304905681496643  0.4999969260257625
  0.5800823435280293  0.5651542405738422  0.4999968484521499
  0.7160361605882425  0.6387861841594272  0.4999969418860459
  0.5889170967615303  0.8170055847032349  0.9999969367138809
  0.3392906478270586  0.8326335083433374  0.9999967881895411
  0.3680257483646175  0.7287486490377248  0.4999971066021081
  0.9999193764771712  0.4692930775916612  0.9999967954371141
  0.1821675246876571  0.7153284035040183  0.9999969107091261
  0.9665499245119353  0.6450314836190576  0.4999970069019116
  0.1363559608775237  0.9035441149577970  0.4999968098797513
  0.8154807746902124  0.2267115617626193  0.9999966935941551
  0.7876196379765869  0.9698272513170788  0.4999969168247904
  0.5383186554985958  0.0735013389341621  0.9999966603275106
  0.6759347320084548  0.1518435414182771  0.9999969357889760
  0.5370795013485700  0.4023310870679698  0.4999964791507636
  0.6796187113690748  0.4797705438632693  0.4999965476933537
  0.8337526809534552  0.8069605438988213  0.9999969572805109
  0.8204530434538906  0.5577901619560838  0.4999969690410517
  0.5058418001625506  0.4867331310648048  0.9999969621315905
  0.5113494036892962  0.8197551576949834  0.4999971105927278
  0.6514239301228513  0.8948964535176666  0.4999969340610422
  0.3498890653310339  0.4119715779924448  0.9999966766833299
  0.3487413159063809  0.1465048710320975  0.4999977098839761
  0.9944249122206459  0.9425305515083503  0.9999968707631626
  0.1813321044966697  0.1751001129869194 -0.0000035569202858
  0.9938687707600959  0.2072017724783721  0.5000004655772120
  0.1710535867679106  0.4289161914493483  0.4999970727279785
