POSCAR file written by OVITO            
   1.00000000000000     
    25.0653550613193552   -1.2625925510863936    0.0000000226507439
    -0.8944964582259121   18.3064329744993657    0.0000000020242878
    -0.0000000175132190    0.0000000033071196    4.9397877839471107
   Mg   Nd
    89     6
Direct
  0.2903009267301975  0.1703420914461365 -0.0000031358470798
  0.3747233058449060 -0.0013659828648850  0.9999968647521040
  0.2511742689194736  0.0020049753694136  0.9999968479975135
  0.4740907925778752  0.3289852015262753 -0.0000031535874439
  0.3031539858377242  0.4351244029007099  0.4999968371586336
  0.4054102806907191  0.2589121463563194  0.4999968365344275
  0.1261510318211589 -0.0118781129580908 -0.0000031489113505
  0.0404278593499552  0.1602501554055234 -0.0000031234300118
  0.4671800901222648  0.1110077098366312  0.4999968525277172
  0.4135274688056852  0.1689049641462889 -0.0000031464379972
  0.0406253870227284  0.4177047407181845  0.4999968594100063
  0.4242553211913694  0.4259554523990739  0.4999968476433526
  0.2152553991490595  0.3303243527793571 -0.0000031600597601
  0.2048546416669015  0.0707673781669184  0.4999968395935508
  0.1254741641813753  0.2460772339911263  0.4999968318864286
  0.0792825657261884  0.0772171692559841  0.4999968366322683
  0.2558202737953154  0.2519593659925754  0.4999968280666908
  0.0854966286329524  0.3292320755249268 -0.0000031498397872
  0.2945511914409321  0.6692404485411348 -0.0000031712293824
  0.3802459895081892  0.5168701130398239  0.9999968428161552
  0.2534852120567445  0.5001360814533143  0.9999968522609516
  0.4606220827277387  0.8500777592193881 -0.0000031541282052
  0.2950796831010516  0.9174642890775644  0.4999968570801515
  0.3812309338408219  0.7678200936236015  0.4999968543064239
  0.1256854813572050  0.5022154590680739 -0.0000031731212624
  0.0457376565858489  0.6601239906555353 -0.0000031601755122
  0.4631421960300913  0.5926662643161412  0.4999968446992247
  0.4212363952285422  0.6831223296641403 -0.0000031605650500
  0.0449333783378753  0.9041905901505133  0.4999968622384671
  0.4207232494888271  0.9384224106195703  0.4999968361904893
  0.2103306933435249  0.8318325976334807 -0.0000031686896889
  0.2154882227290690  0.5866377754902304  0.4999968601587641
  0.1265874069316133  0.7450905366892431  0.4999968505323629
  0.0885916967412943  0.5786587430119207  0.4999968700918341
  0.2540606723786080  0.7520638836098046  0.4999968670438291
  0.0828568030451776  0.8263048487534106 -0.0000031637761278
  0.7853430122842541  0.1657542375215408 -0.0000031500032187
  0.8654907146532673 -0.0027306738884902  0.9999968482703990
  0.7444349023699336 -0.0011374452880068  0.9999968378601145
  0.9572577660340704  0.3336800596214534 -0.0000031522682157
  0.7927282017743489  0.4120359661179099  0.4999968527469641
  0.8682793464697380  0.2427686206087861  0.4999968520065958
  0.6225402337017972 -0.0000232685774799 -0.0000031600235518
  0.5398154335803751  0.1842919286144079 -0.0000031559613067
  0.9420408409079550  0.0738940376147326  0.4999968567002685
  0.9138182592375429  0.1619605264496145 -0.0000031553613334
  0.5451423926690808  0.4071694868312746  0.4999968696658998
  0.9173803842811398  0.4063161591031288  0.4999968609767899
  0.7131678439578684  0.3345751784499155 -0.0000031551001102
  0.7016409478512267  0.0826506314113999  0.4999968498028065
  0.6158085612588188  0.2533063264749441  0.4999968663885879
  0.5828270265723714  0.0878224260681404  0.4999968409098139
  0.7441327967542760  0.2472580206326498  0.4999968463163299
  0.5948896514149439  0.3427713722687098 -0.0000031862820217
  0.7951682332043430  0.6647748867805863 -0.0000031595971925
  0.8764766304800433  0.4907945944390655  0.9999968354140897
  0.7534022969073895  0.4999397068137161  0.9999968455554396
  0.9588572797810224  0.8169897303214931 -0.0000031541527507
  0.7899265442661433  0.9144796342012875  0.4999968467613286
  0.8774383317391286  0.7397506762927795  0.4999968451246431
  0.6300271948589642  0.5052307632675054 -0.0000031543784708
  0.5453205550426227  0.6650047422145748 -0.0000031611418904
  0.9602756263846648  0.5734821544720543  0.4999968766202172
  0.9193940338436243  0.6539227140822529 -0.0000031601778954
  0.5430610948169622  0.9224220954547105  0.4999968517711351
  0.9163716164280362  0.9064850779339975  0.4999968575764593
  0.7105925213199804  0.8320073523991486 -0.0000031620569832
  0.7110777945972663  0.5833532299271551  0.4999968543292717
  0.6271558193283832  0.7471755015996324  0.4999968514100703
  0.5858867003459522  0.5798161595031787  0.4999968466397859
  0.7524797602304372  0.7482123514284552  0.4999968456775256
  0.5849921620638806  0.8320136351033801 -0.0000031552810281
  0.3343394377891460  0.8334929383112172 -0.0000031663308114
  0.3407448847592163  0.6020992114764535  0.4999968658136873
  0.0000697114912417  0.4985288836019024 -0.0000031709671388
  0.1704819497684329  0.6668141393424621 -0.0000031592305755
  0.0022880068456499  0.7380896850698657  0.4999968577523507
  0.1703795116519325  0.9069236477511732  0.4999968674952625
  0.8337488517491486  0.3278338103139223 -0.0000031636877423
  0.8215054277732387  0.0811982026727667  0.4999968553153810
  0.4999712432117055  0.0175414554794300 -0.0000031470796524
  0.6617364100748537  0.1707108670972321 -0.0000031647624275
  0.6694237035163989  0.4166377743003634  0.4999968551870466
  0.8363211705831243  0.8302840094081544 -0.0000031550274310
  0.8355299378228520  0.5766407356719391  0.4999968529379205
  0.5037032933130022  0.4972915236810029 -0.0000031567495619
  0.6707298629534689  0.6679039174862528 -0.0000031594830144
  0.5036598253351888  0.7569794876640559  0.4999968446654832
  0.6661347120516281  0.9149635151253332  0.4999968439429229
  0.3421482854474612  0.3340248937795363 -0.0000030995948249
  0.3356747178666629  0.0957911027695298  0.4999968470116519
 -0.0040217905071694 -0.0049748868306428 -0.0000031718215077
  0.1661046613666855  0.1648596290056230 -0.0000031105682039
  0.0000383740849856  0.2409977724731565  0.4999968271230840
  0.1714055067002463  0.4104926244703442  0.4999968974968610
