POSCAR file written by OVITO            
   1.00000000000000     
    25.4219379678611119    0.6623166278499697    0.0000008384605763
     0.5277065982028364   17.0023213260630506    0.0000009265371532
    -0.0000002826196712   -0.0000000799320795    5.1252382181067340
   Mg   Nd
    85     6
Direct
  0.2965498753321930  0.1518046519258810 -0.0000030674354559
  0.3819893290520633 -0.0027242975715972  0.9999969587093234
  0.2556444274186557 -0.0143961925427244  0.9999969750507991
  0.5112012767866105  0.3282660291002155 -0.0000030291747346
  0.2859380768726780  0.4358474468359372  0.4999969704366849
  0.4513733314941566  0.2763943572423504  0.4999969592929777
  0.1308376827363290 -0.0245637459946955 -0.0000030266882755
  0.0485336427292981  0.1664508568175477 -0.0000030520318345
  0.5104248479410886  0.1078858977728119  0.4999969543321967
  0.4479965225942162  0.1687791441784287 -0.0000030481065126
  0.0314438696584625  0.4359179661841164  0.4999969763319186
  0.4025656055625799  0.4434662228218653  0.4999969655577185
  0.2150147082259952  0.3329384942909527 -0.0000030200113275
  0.2369241158657682  0.0832723640445354  0.4999969687986826
  0.1198764098049559  0.2471099928237622  0.4999969726174941
  0.0902642171710315  0.0773878754544602  0.4999969733452284
  0.2567760791791190  0.2560949469615391  0.4999969687973232
  0.0793110480328961  0.3327058812950827 -0.0000030212349781
  0.2735383247217070  0.6671627307576442 -0.0000030305352953
  0.3430165015582382  0.5129239894180052  0.9999969699143610
  0.2231538492350042  0.5042944934654878  0.9999969861019792
  0.4532954354868031  0.8326764324151138 -0.0000030308317081
  0.3229781653175260  0.9390220864347169  0.4999969686079451
  0.3930698201280385  0.7769955035915388  0.4999969725726436
  0.0923465496373295  0.5007738611133518 -0.0000030264298878
  0.0155441096297221  0.6440128311385571 -0.0000030366793208
  0.4600153885519221  0.6062847031651925  0.4999969637350243
  0.3985692971251844  0.6697950573723626 -0.0000030393891796
  0.0688930930427429  0.9081102964026734  0.4999969597281367
  0.4467052035159506  0.9447789634298041  0.4999969564354819
  0.2014525530990733  0.8174660695441541 -0.0000030323653624
  0.2146324760406799  0.6025780239135949  0.4999969697659999
  0.1429390556240134  0.7597962703190375  0.4999969803831910
  0.0853557936526235  0.5980140845417383  0.4999969855720355
  0.2686006410100201  0.7721522358855405  0.4999969800198263
  0.0745895715613226  0.8110462104488824 -0.0000030274711936
  0.8174787059247391  0.1464136773163134 -0.0000030315364543
  0.8788681444080746 -0.0237535413447099  0.9999969684172508
  0.7575499820990638 -0.0171134246098284  0.9999969632692896
  0.8953839814804705  0.3210386970054506 -0.0000030352268889
  0.8516992334355640  0.2415719406435723  0.4999969821171506
  0.6344677160957025 -0.0107969122564527 -0.0000030434268838
  0.5751122635430861  0.1596427143184823 -0.0000030363162876
  0.9125243406477036  0.0752727901478023  0.4999969769544526
  0.9320115446737824  0.1580057301050143 -0.0000030397109257
  0.5251791901453711  0.4341695357105302  0.4999969456826657
  0.8986965264639066  0.4212253024036958  0.4999969864254064
  0.6385150780230738  0.0954609709195304  0.4999969556150071
  0.6422029447123883  0.3222543706706688 -0.0000030523688664
  0.7673514818365732  0.6455440678328386 -0.0000030367599655
  0.8305820306639856  0.4782984230479123  0.9999969749661736
  0.7081934105055008  0.4827827261266622  0.9999969475527661
  0.9483239868058536  0.8076035754306348 -0.0000030399760853
  0.8200742919128700  0.9190658074228221  0.4999969637981891
  0.8867707305602744  0.7487160645831469  0.4999969659600954
  0.5842112216542278  0.4902484764752642 -0.0000030344569986
  0.5214010612559888  0.6627385555256882 -0.0000030332433280
  0.9556914249293498  0.5869817342976567  0.4999969716039501
  0.8912699293525890  0.6410891358707693 -0.0000030294489018
  0.5732182712000062  0.9351986240778771  0.4999969584536634
  0.9442440096823825  0.9051575742919810  0.4999969708991661
  0.7007671597137836  0.8175473993314745 -0.0000030483891412
  0.7070527088955572  0.5895495466190460  0.4999969494203210
  0.6387172161267640  0.7627683095633693  0.4999969594473653
  0.5835210976611194  0.5980505768483053  0.4999969458574738
  0.7624671722198423  0.7543661649147554  0.4999969633315063
  0.5770878967503550  0.8262775731741210 -0.0000030393705195
  0.3272537758900674  0.8284804090337605 -0.0000030345431385
  0.3378916261268233  0.6144005817536881  0.4999969823601985
 -0.0363553653988157  0.4662783492873541 -0.0000030290129818
  0.1467313613587281  0.6545798466880776 -0.0000030270675117
  0.0132998765840646  0.7511511274529532  0.4999969806020783
  0.1936795651665144  0.9243068791002108  0.4999969728601508
  0.7669370799786819  0.3164042209559011 -0.0000029615909864
  0.7646441264106302  0.0935893170687828  0.4999969653832650
  0.5077646668927305 -0.0004621201340948 -0.0000030239479653
  0.6975073577115480  0.1569343678140955 -0.0000030355182225
  0.5822968738857348  0.2664880105977088  0.4999969432123781
  0.6520364874789265  0.4244156842431272  0.4999969352440590
  0.8240409461489001  0.8110844940587221 -0.0000030360622286
  0.8307936593793025  0.5856410715696896  0.4999969664140819
  0.4613098595907819  0.4975841514422824 -0.0000030313615432
  0.6445270511834611  0.6535502389351786 -0.0000030395192225
  0.5152096160744301  0.7716848571254898  0.4999969586236069
  0.6975837734568950  0.9262666345548093  0.4999969665302590
  0.3536961108127643  0.3201253149454059 -0.0000030263070982
  0.3713346587544860  0.1268740585998832  0.4999970157219791
  0.0048003162824306 -0.0043161793474711 -0.0000030041886818
  0.1711282254476059  0.1604549706106531 -0.0000030212087507
 -0.0124874954531937  0.2533922344077439  0.4999970145022469
  0.1587056284605047  0.4197457077738306  0.4999969616113727
