POSCAR file written by OVITO            
   1.0000000000000000     
    25.0785444256316374    0.8773738135869337   -0.0000001379123777
     0.6312389126642181   17.3011374830461619   -0.0000000004901194
    -0.0000000493950338    0.0000000290437545    5.1875458085008743
   Mg   Nd
    88     6
Direct
  0.2923786302815434  0.1531289215368195 -0.0000030636243071
  0.3773302955077714 -0.0273944947258300  0.9999969302550128
  0.2593494066335961 -0.0092644162780482  0.9999968940958778
  0.4585128841020368  0.3262317488384605 -0.0000030650827270
  0.2963690595987787  0.4328425790437556  0.4999969149917700
  0.3989278565546201  0.2533527564807356  0.4999969305575318
  0.1371541103275367 -0.0119446902693465 -0.0000029440196717
  0.0456820724094947  0.1708685597937951 -0.0000030486957816
  0.4815396348215157  0.1041417557706224  0.4999969278486441
  0.4158735015063148  0.1546095498219057 -0.0000030707413883
  0.0258773487241985  0.4184349037329187  0.4999969265405497
  0.4241452740873447  0.4267741747270167  0.4999969522650540
  0.2044776825321166  0.3268139455134909 -0.0000030744883208
  0.2141292724935417  0.0605730190992257  0.4999968937245101
  0.1192161938896030  0.2451102765508067  0.4999969128058359
  0.0839066504660994  0.0724878895898146  0.4999969752605167
  0.2520966508633015  0.2444400963138620  0.4999969270390594
  0.0807624258126507  0.3374629548931320 -0.0000030719518610
  0.2875879936707993  0.6502646620280632 -0.0000029614809795
  0.3660838479211495  0.4963207888739753  0.9999969669571812
  0.2405390707539465  0.4895590474662287  0.9999969092951631
  0.4564981355940926  0.8227131491017704 -0.0000030629099515
  0.3034697094755718  0.9074637882353632  0.4999969019438762
  0.3955885841496662  0.7610811796269090  0.4999969249665024
  0.1193791296324228  0.5103825756913657 -0.0000030545141136
  0.0479629541144492  0.6754767347173353 -0.0000030591815689
  0.4744155852499217  0.6045111775682850  0.4999969431764778
  0.4113574456344129  0.6566361263360573 -0.0000030475015108
  0.0388126329009914  0.8949465399373970  0.4999969243318725
  0.4386091017198993  0.9286681640573697  0.4999969308506825
  0.2150887416220943  0.8283190533718378 -0.0000028794701976
  0.2108874039744752  0.5854571815434930  0.4999968839629043
  0.1193808991586434  0.7371220438606629  0.4999968717925437
  0.0714258245209653  0.5768723876427426  0.4999969291407552
  0.2584015095236419  0.7454113077001765  0.4999970749466112
  0.0926880487240104  0.8342618195192976 -0.0000030989361104
  0.7948607043347875  0.1586152225836489 -0.0000030686858604
  0.8760609392548406  0.0025013404673100  0.9999969346490802
  0.7547506205705777 -0.0126751962926261  0.9999969312925484
  0.9587199242140090  0.3524494624307836 -0.0000030477678325
  0.7705987077295376  0.3729386468884484  0.4999969364144597
  0.8545173351026104  0.2236555009276204  0.4999969346546626
  0.6227893936195716  0.0048026117005106 -0.0000030645742587
  0.5407204800694609  0.1701230190711925 -0.0000030670781078
  0.9359446152875545  0.0730985645624620  0.4999969378568793
  0.9204890860115196  0.1724513070159369 -0.0000030509178335
  0.5562399167115291  0.4557139496816806  0.4999969398937060
  0.8970052904292776  0.3976457795449300  0.4999969326394397
  0.7121073922016321  0.3243478252293387 -0.0000030670218708
  0.7304618129160797  0.1954249712159090  0.4999969332127666
  0.6456706484674605  0.3260764602115303  0.4999969343981175
  0.6051798718990141  0.1324354463798350  0.4999969346569508
  0.5802443117465171  0.3418304848078829 -0.0000030616355413
  0.7990487654479348  0.6590577310524389 -0.0000030634768524
  0.8778186068126222  0.5042037268166049  0.9999969516631975
  0.7533113346550218  0.4913686487294699  0.9999969439029626
  0.9694826762635542  0.8298675697728519 -0.0000030636696890
  0.7789170362107724  0.8724441557015147  0.4999969284261623
  0.8605746145388397  0.7244167120507000  0.4999969314335533
  0.6191696919077755  0.5077396678088832 -0.0000030559413347
  0.5358702025151910  0.6696732898391555 -0.0000030569412913
  0.9375808121125042  0.5670969230625715  0.4999969176643979
  0.9232419733292472  0.6714160089002328 -0.0000030537758884
  0.5647176942496775  0.9551996163501489  0.4999969280665805
  0.9108321676468116  0.9009742676270621  0.4999969348488550
  0.7149109773994833  0.8227490836204532 -0.0000030742826371
  0.6882495218606369  0.5113844907322299  0.4999969337229762
  0.6459266886760124  0.8158727191949331  0.4999969237095915
  0.5999924971467664  0.6345225045773494  0.4999969261713409
  0.7347332953847038  0.6941414999946849  0.4999969334427555
  0.5806840217823073  0.8381182508740834 -0.0000030638621749
  0.3329476657145347  0.8091649627032966 -0.0000030826680239
  0.3483161426455356  0.5985224522543238  0.4999970033345903
  0.0006044390990929  0.5182081350711367 -0.0000030547252084
  0.1691120572347854  0.6690095976761218 -0.0000031382812332
 -0.0124299713330810  0.7280406578315071  0.4999969262975693
  0.1654496237080468  0.8978338653382825  0.4999971017981484
  0.8387217235291180  0.3295558773567333 -0.0000030568910379
  0.8098969007579018  0.0475913641441098  0.4999969308171447
  0.4962428048214018 -0.0017487161667435 -0.0000030725528772
  0.6676748497324630  0.1646314675790204 -0.0000030661689513
  0.5246759664541405  0.2803461624223982  0.4999969406308688
  0.8434792649417635  0.8293349968702124 -0.0000030713775349
  0.8130290599301226  0.5471854528539252  0.4999969323921241
  0.4913994208402551  0.4991835820714884 -0.0000030523303397
  0.6672951472899877  0.6650643142962224 -0.0000030597002362
  0.5213151920341510  0.7807903666237735  0.4999969253874816
  0.6890257175285872  0.9999590284454853  0.4999969224618155
  0.3284953357011297  0.3201841663469796 -0.0000030748850668
  0.3452896171933569  0.0851320712230773  0.4999969253800157
  0.0053776692252088  0.0060306044158351 -0.0000030691229800
  0.1690917595293414  0.1618945625936514 -0.0000030672984764
 -0.0082453284011040  0.2393004918312419  0.4999969510107967
  0.1642705743641510  0.4101445923747347  0.4999969392510596
