POSCAR file written by OVITO            
   1.0000000000000000     
    25.0343685021592854   -1.3464177884202422   -0.0000001415288436
    -0.9542514450654397   18.3350488172512698    0.0000001113451394
    -0.0000000289417335    0.0000000301114235    4.9250485696258455
   Mg   Nd
    88     6
Direct
  0.2994670508723989  0.1763272258647960 -0.0000031632197162
  0.3925431375137395  0.0079659497056055  0.9999968364441149
  0.2609580356300261  0.0083445603963801  0.9999968460051211
  0.4726527526425570  0.3394487206526733 -0.0000031799984850
  0.3029840823162017  0.4383248345847918  0.4999968421473580
  0.3980871884401577  0.2671147331216623  0.4999968340698682
  0.1306260583250732 -0.0109453376242916 -0.0000031569848682
  0.0464279167819886  0.1579815928329712 -0.0000031607841681
  0.4690016934588463  0.0728457003280835  0.4999968489774039
  0.4273253111397102  0.1767556773483147 -0.0000031648510667
  0.0411143811664499  0.4156395778092227  0.4999968341934879
  0.4252116351794184  0.4340824346194359  0.4999968248045578
  0.2159739498913937  0.3325188176624949 -0.0000031632628361
  0.2107544988788801  0.0675119404893511  0.4999968245719646
  0.1300342134590655  0.2458470101991560  0.4999968342017369
  0.0841130586059831  0.0746030084378141  0.4999968336864439
  0.2588784876658194  0.2542673831816438  0.4999968277221498
  0.0877127923754313  0.3290059100816005 -0.0000031652619162
  0.2932687652163070  0.6779555339888319 -0.0000031789269037
  0.3792177472431733  0.5245260886715745  0.9999968258550147
  0.2533881774545745  0.5054330592520724  0.9999968426424879
  0.4635656412099102  0.8630951624580542 -0.0000031909313904
  0.2876731656180883  0.9208208213815587  0.4999968330655842
  0.3726631161859295  0.7623171222518504  0.4999968214008429
  0.1255646182615836  0.5045289796063205 -0.0000031762548149
  0.0425953803539039  0.6598858394262169 -0.0000031717822540
  0.4599146517888227  0.6029636707719277  0.4999968043755116
  0.4196235465816631  0.6915373859693411 -0.0000031823083361
  0.0407990034433517  0.9006004615295911  0.4999968394277222
  0.4096965521122337  0.9219495076444333  0.4999968138679050
  0.2104318230596799  0.8391953252190919 -0.0000031740940109
  0.2102257725936755  0.5902665481000361  0.4999968521377042
  0.1207302814501694  0.7434276342285551  0.4999968499788274
  0.0844815642987498  0.5775121151928793  0.4999968470658113
  0.2475371638912222  0.7553776722862664  0.4999968489181762
  0.0817680215962628  0.8271982677023852 -0.0000031675486196
  0.7884647120571151  0.1598128946378998 -0.0000032050054494
  0.8653894905648634 -0.0038432245756774  0.9999968162807615
  0.7410231256282787 -0.0040595606518318  0.9999967847733177
  0.9592541584234899  0.3298122674573795 -0.0000031828749746
  0.7941884954505211  0.4118240904794318  0.4999968105320386
  0.8751728126738576  0.2382081097343022  0.4999968178927998
  0.6143714186928187  0.0042529204342170 -0.0000032411947084
  0.9441166837304796  0.0723909882699749  0.4999968306290106
  0.9184733852362988  0.1584002748941512 -0.0000031764598865
  0.5479950485725499  0.4076021619943925  0.4999968084732619
  0.9181295749704165  0.4032839132901884  0.4999968225480111
  0.7123023962552211  0.3307511228018784 -0.0000032020589519
  0.7022560208442613  0.0835816017769758  0.4999967896613459
  0.6391667667722586  0.2569725715363423  0.4999968010945223
  0.5857422228126520  0.1018630689701030  0.4999967548557233
  0.7562850974183016  0.2453245894853235  0.4999968078185857
  0.5884778986163938  0.3150272681476995 -0.0000032039964433
  0.7905706281662342  0.6639693060599370 -0.0000032063194749
  0.8745654276469553  0.4885649603660535  0.9999968027616433
  0.7504128150332384  0.4980411085152067  0.9999967976275848
  0.9564512387593657  0.8172559860780760 -0.0000031812291201
  0.7868280920987109  0.9126184673326713  0.4999967982357246
  0.8733521234704545  0.7404292947825803  0.4999968099692150
  0.6242065547909724  0.4916909053126904 -0.0000032041260972
  0.5418362094575715  0.6727068514741755 -0.0000032051743360
  0.9568067139197962  0.5707061003197550  0.4999968327323257
  0.9157362785386474  0.6533390671361486 -0.0000031838355263
  0.5388164857170730  0.9363227297244472  0.4999967706711198
  0.9140948178126557  0.9069128652203305  0.4999968219307906
  0.7068496586003062  0.8285411845152014 -0.0000032214152768
  0.7085320409221948  0.5830109713253366  0.4999967887495625
  0.6227241418963645  0.7464205097543481  0.4999967701383454
  0.5828971971881027  0.5787306889761717  0.4999967891472775
  0.7484585201071382  0.7466756432877634  0.4999967782317128
  0.5834151412234628  0.8377870616375450 -0.0000032231877553
  0.3358410660458983  0.8456336164211419 -0.0000031768906617
  0.3347203198905521  0.6020030154734231  0.4999968322896842
 -0.0009033839962833  0.4965608990538817 -0.0000031821006532
  0.1680258865327600  0.6726348626920621 -0.0000031602123472
 -0.0029199042488860  0.7354321244719479  0.4999968361102574
  0.1639973913789211  0.9046845691674497  0.4999968558652523
  0.8347243914114790  0.3235910393264885 -0.0000031944954876
  0.8223707186593497  0.0776912643661191  0.4999968057165824
  0.6619000141273381  0.1666421880070555 -0.0000032230815278
  0.5155383013669940  0.2353802473048777  0.4999968145018087
  0.6719668471204827  0.4193099017423728  0.4999967928144715
  0.8328158741860220  0.8298166101905253 -0.0000031967998605
  0.8327118158868316  0.5769205472497062  0.4999968013737027
  0.5012253830359424  0.5067198634579562 -0.0000031926368659
  0.6650222541207819  0.6615926022562100 -0.0000032131286507
  0.4989284276488212  0.7692851507644710  0.4999967924406163
  0.6618829211710275  0.9159225399512952  0.4999967673526676
  0.3415585150771041  0.3427661940606124 -0.0000031612464277
  0.3436708772198919  0.0975385016950930  0.4999968276451990
 -0.0020356258872203 -0.0057102795479951 -0.0000031700492791
  0.1725082939755634  0.1648334390304498 -0.0000031456185731
  0.0049094487558949  0.2380171121613300  0.4999968322143847
  0.1722584887492213  0.4127142188296921  0.4999968527085142
