POSCAR file written by OVITO            
   1.0000000000000000     
    25.5033647008540463    1.8698687445952389    0.0000014386500359
     1.3275250487971657   17.2222734010177270   -0.0000015270113119
     0.0000003148757480   -0.0000004485222813    5.1794142090848725
   Mg   Nd
    87     6
Direct
  0.3059403304946873  0.1669081051259335 -0.0000031717996472
  0.4114607259969401 -0.0082641230322528 -0.0000031725459129
  0.2736509723945468  0.0009946659139105  0.9999967873644021
  0.4670121073503566  0.3363464575995527 -0.0000032155575340
  0.2771527809994522  0.4198982232744739  0.4999966983948282
  0.3793588206880711  0.2346091401838641  0.4999967349758175
  0.1481313574764353  0.0000615119219288 -0.0000032310976037
  0.0558945508937404  0.1828406995167007 -0.0000032229918943
  0.4656734393353791  0.0547916143882054  0.4999967788503359
  0.4286816886896446  0.1616131862026400 -0.0000032104965669
  0.0198859213439888  0.4266918377700702  0.4999967840339228
  0.4034288155714573  0.4043244860912201  0.4999967668344885
  0.2115654657987085  0.3471963883592941 -0.0000026238253035
  0.2117327502782325  0.0570770746575692  0.4999967789115861
  0.1201639035781688  0.2455430299165451  0.4999967375814900
  0.0880552965901221  0.0779994451651703  0.4999967845514140
  0.2504439099231960  0.2461844384282151  0.4999967140266258
  0.0839816353427779  0.3486726684587823 -0.0000030361382638
  0.3060306949366785  0.6793519289043355 -0.0000032272773283
  0.3858226783713422  0.5071071437372835  0.9999967730025826
  0.2527973720640104  0.5146289978163389  0.9999967835787600
  0.4833747958177724  0.8295436827860367 -0.0000032051610473
  0.2879539851455342  0.8958919908428306  0.4999967708819338
  0.3668174741868515  0.7306898714146578  0.4999967652263513
  0.1308890532141781  0.5308927329395385 -0.0000029478499938
  0.0535112572881381  0.6906206823344296 -0.0000032043322215
  0.4471330616613401  0.5639369929251496  0.4999967753537207
  0.4329280957332726  0.6698493620669221 -0.0000032207449480
  0.0355776480772097  0.9037411674150176  0.4999967935910422
  0.4165601400417128  0.8904490521123783  0.4999967563482353
  0.2286741685247427  0.8422384074500611 -0.0000032274348406
  0.1922509122617781  0.5839906117199639  0.4999967747887200
  0.1133939408955060  0.7410468337184352  0.4999967778430578
  0.0658815996403962  0.5841347089850958  0.4999967704999165
  0.2403210245228860  0.7370392680180606  0.4999967821982931
  0.0993586332572011  0.8480394706226960 -0.0000032257647969
  0.8009345559375108  0.1836124917986592 -0.0000032140827003
  0.8843510757288752  0.0229280323645213  0.9999967832778061
  0.7609433750208664  0.0138777861988022  0.9999967801688595
  0.9627512890483233  0.3666761042552355 -0.0000032265650972
  0.7741039354226678  0.4065478339113588  0.4999967764206882
  0.8591217176723123  0.2454784176040954  0.4999967779016995
  0.9408098371695248  0.0859851875987233  0.4999967695203553
  0.9264357742279221  0.1895098812032429 -0.0000032313367399
  0.5284758805282260  0.3951869450044427  0.4999967732991428
  0.8984729286371247  0.4154674390967306  0.4999967822764064
  0.7186411044639435  0.3441176174412646 -0.0000032196089156
  0.6970838748180638  0.0685113923843812  0.4999967497854554
  0.6149807144458901  0.2317519415985311  0.4999967557255363
  0.5809593927581421  0.0617968935684398  0.4999971029787962
  0.7357780844306867  0.2384467403487749  0.4999967667744987
  0.5928812412583233  0.3359329649863718 -0.0000032279390229
  0.8073277895685452  0.6843077191915496 -0.0000031991867472
  0.8854354038464481  0.5251232637688305  0.9999967897361547
  0.7623295409141175  0.5142958347096495  0.9999968001743091
  0.9740294326805118  0.8504201065402667 -0.0000032089618535
  0.7822892802729781  0.9080227094590447  0.4999967745403388
  0.8623824500864348  0.7472864607466093  0.4999967828027855
  0.6385449474593198  0.5074919576925627 -0.0000032100837056
  0.5600449429980705  0.6695893229477082 -0.0000032114897198
  0.9391386745496074  0.5845079188594801  0.4999967721449196
  0.9297531490164209  0.6911177330968984 -0.0000032120744755
  0.5380064668504130  0.8951434458555557  0.4999967516127609
  0.9110375841667827  0.9173703283295305  0.4999967793319666
  0.7263326973898062  0.8446798431934889 -0.0000032141501108
  0.6938635628241646  0.5681342401356354  0.4999967700666109
  0.6151515651701207  0.7319071214507166  0.4999967608512084
  0.5710151386473621  0.5625608990075122  0.4999967647412509
  0.7382842023907986  0.7379496465065220  0.4999967689379551
  0.6049932440711705  0.8403221395433615 -0.0000032156736838
  0.3556687822239317  0.8426533979457432 -0.0000032182137685
  0.3215147970765783  0.5726181106409436  0.4999967734332424
  0.0113394485736952  0.5283930650828295 -0.0000032095607309
  0.1808285429278240  0.6887036463697315 -0.0000032125951971
 -0.0137700291716091  0.7433586682703623  0.4999967818118031
  0.1574998019887246  0.8995812010620690  0.4999967890996763
  0.8438478527562565  0.3521264159758667 -0.0000032081898435
  0.8171027579891776  0.0759740850353637  0.4999967762985451
  0.6767968130112734  0.1736802289212170 -0.0000032450849830
  0.4982519983249039  0.2228262632067309  0.4999967939240132
  0.6509753909668389  0.4001126538476657  0.4999967737950849
  0.8489609678572432  0.8541050148201874 -0.0000032068985883
  0.8166121578760246  0.5753612692203295  0.4999967800679179
  0.5135784593324153  0.5033383834380646 -0.0000032156290439
  0.6836270731782697  0.6759701755159907 -0.0000032079780379
  0.4919299590553254  0.7254711223427455  0.4999967624419635
  0.6591717256398909  0.9025738697672013  0.4999967617084203
  0.3356252000377465  0.3342932062699372 -0.0000031243635609
  0.3391325648468448  0.0689294076564735  0.4999967224594052
  0.0143285883039692  0.0228809671695316 -0.0000032107703126
  0.1804110049790989  0.1743578272302719 -0.0000031566082537
 -0.0050764786609542  0.2484906093914056  0.4999968334515558
  0.1517822300285486  0.4126002186698334  0.4999957116642336
