POSCAR file written by OVITO            
   1.0000000000000000     
    25.4575205720107753    1.8366282836067402   -0.0000068854977530
     1.2997606874066925   17.2567062211465938    0.0000057419355197
    -0.0000017815869709    0.0000019000891355    5.1767435319774338
   Mg   Nd
    87     6
Direct
  0.3081684336695620  0.1649851870479277 -0.0000030591085068
  0.4053559608116089 -0.0064763524385178 -0.0000029707828782
  0.2718644641984499 -0.0006657346928899 -0.0000031226904822
  0.4686349932182637  0.3396499623306826 -0.0000030965636882
  0.2782266282429897  0.4176252180164509  0.4999967948883775
  0.3805235215367029  0.2308873993286085  0.4999969507383928
  0.1462437844752765 -0.0021573063438379 -0.0000032423566801
  0.0557904395512713  0.1787957459293750 -0.0000030106816220
  0.4636288552385374  0.0566674133463903  0.4999968405599960
  0.4334514385166196  0.1606127753939840 -0.0000030951247527
  0.0200666016888113  0.4242911167776319  0.4999967974369399
  0.4042791873491769  0.4034255866782896  0.4999967916918321
  0.2127396004558643  0.3450960155341681 -0.0000028943970915
  0.2093403844306263  0.0536907280868783  0.4999967431729362
  0.1205319131386475  0.2418811248688948  0.4999965923240060
  0.0858695936670417  0.0746574063085009  0.4999966741107079
  0.2510975954723557  0.2444210050082862  0.4999967161005272
  0.0839316435972265  0.3452607770765013 -0.0000030564273391
  0.3057978752326028  0.6775698453582458 -0.0000031952734071
  0.3860210561851043  0.5071502826867080  0.9999968066908819
  0.2534789268116859  0.5120888532992466  0.9999968688169548
  0.4827879514156325  0.8343354695618599 -0.0000031240897340
  0.2867751105467585  0.8941021933343248  0.4999968125877343
  0.3663252370668084  0.7301900568681587  0.4999968704679779
  0.1309712388068602  0.5267959676201709 -0.0000031601655364
  0.0537788229372379  0.6868873494669162 -0.0000032809867903
  0.4465024233217012  0.5662861478832723  0.4999968239637745
  0.4327267596497159  0.6724719445986141 -0.0000031079598418
  0.0359090451466411  0.9006221173905403  0.4999968023692106
  0.4154106394642938  0.8917216855408193  0.4999968685194811
  0.2275524199916173  0.8398234907494726 -0.0000031850096194
  0.1922933479311653  0.5810107555173917  0.4999967868844585
  0.1134061142992561  0.7381893382693300  0.4999967209570253
  0.0664839326955787  0.5808084862102073  0.4999968093764349
  0.2399874119312638  0.7347367130958445  0.4999968621961622
  0.0988074163756001  0.8448311191445050 -0.0000033317058650
  0.7957269879039514  0.1822529864859506 -0.0000033053119954
  0.8821582897471232  0.0227897666415607  0.9999966865132864
  0.7594990218488011  0.0122815719413810  0.9999967005315625
  0.9617819327783592  0.3642071999772305 -0.0000032196217323
  0.7737192555782751  0.4089843697249741  0.4999967418251072
  0.8586673294941779  0.2450347213113423  0.4999967016465688
  0.9395657613545881  0.0860663815701332  0.4999966814600221
  0.9250470874431178  0.1884288290805264 -0.0000032205327738
  0.5284922427870444  0.4005055139047947  0.4999968288894184
  0.8981316626744621  0.4141073573751057  0.4999967625668418
  0.7161709916012299  0.3462797717741291 -0.0000032693602087
  0.6966960918881177  0.0785097968111822  0.4999965513731263
  0.6169399606384691  0.2366359313733640  0.4999969726940861
  0.5804642924036690  0.0700661934755363  0.4999968862720880
  0.7355193810500866  0.2433125736109376  0.4999966861605318
  0.5920094319528200  0.3450382036877788 -0.0000031191971433
  0.8073826594615872  0.6841380120976360 -0.0000032689244357
  0.8850446806445635  0.5235648825056650  0.9999967425106044
  0.7620066955051051  0.5157540523766353  0.9999967455640223
  0.9741012602479029  0.8464095960652253 -0.0000033012373834
  0.7831157455660841  0.9098454304473850  0.4999967424253759
  0.8633537413761847  0.7469372961887070  0.4999967386676711
  0.6380268824003548  0.5127244990246282 -0.0000031630987126
  0.5597937510894664  0.6744897052703408 -0.0000031584321412
  0.9396040583431252  0.5825081660757415  0.4999967198048488
  0.9297826581236963  0.6885865396448554 -0.0000032855980510
  0.5391588731900768  0.8956093616412797  0.4999968826886289
  0.9117496632255163  0.9174931610898065  0.4999966553402098
  0.7273264458131603  0.8452255133157146 -0.0000032938747378
  0.6942667821626708  0.5714956868731399  0.4999968256003440
  0.6159612594052515  0.7349007359482700  0.4999968325586289
  0.5708021560443006  0.5669675203053308  0.4999967840241107
  0.7388611763606483  0.7406393924565660  0.4999967176014996
  0.6064507332322288  0.8411158285568843 -0.0000031529319215
  0.3544497547889303  0.8409237489869062 -0.0000031552799706
  0.3212416886958700  0.5714269119397654  0.4999968087109068
  0.0109086310706026  0.5258045169091208 -0.0000032892113547
  0.1805773268905349  0.6853798647630084 -0.0000032548283314
 -0.0129851446396438  0.7403977538310164  0.4999967223779940
  0.1572284905684211  0.8963968136693609  0.4999968359317130
  0.8416640308687380  0.3508771537670924 -0.0000033183054827
  0.8155448683203403  0.0778837466013481  0.4999967089646448
  0.5302117729727198  0.0029626178535919 -0.0000030580020885
  0.4993010254921693  0.2285012126137089  0.4999969732439296
  0.6507368296201977  0.4041450993659274  0.4999967979657630
  0.8495997125970203  0.8532231300184253 -0.0000032820720999
  0.8171213388159952  0.5760372945316501  0.4999967239573082
  0.5130252755242962  0.5092139175542238 -0.0000031958215757
  0.6839830379732948  0.6789158604521537 -0.0000032098776077
  0.4915503774984314  0.7288565988547504  0.4999968949438655
  0.6596276847810970  0.9111614691676166  0.4999966791977957
  0.3376667385581902  0.3321989224648733 -0.0000031259591636
  0.3353249974584342  0.0679339676210618  0.4999958230213090
  0.0118829727772498  0.0196280756114754 -0.0000032982563072
  0.1815929329263998  0.1717545393530362 -0.0000032040377256
 -0.0049827796623001  0.2466806387430898  0.4999965977753092
  0.1524681866981926  0.4089721708441568  0.4999967284337394
