POSCAR file written by OVITO            
   1.0000000000000000     
    25.1453179601779411   -1.3838494506228018    0.0000000789039501
    -0.9771286905939560   18.3164821759830190   -0.0000000342659586
     0.0000000142490294   -0.0000000216367635    4.9169620657838262
   Mg   Nd
    88     6
Direct
  0.2950913568380137  0.1763354540970200 -0.0000032049815409
  0.3806085646000219  0.0066682701030068  0.9999968114989009
  0.2537737347180499  0.0059942518785750  0.9999968168824922
  0.4736139586391788  0.3383290899356792 -0.0000031869214739
  0.3030118105190104  0.4383051555386008  0.4999968308703101
  0.3989727441301684  0.2630147042232310  0.4999968411430457
  0.1267052593276200 -0.0116632526882107 -0.0000031750212247
  0.0443633833674861  0.1584902150968505 -0.0000031844289688
  0.4591972146539284  0.0883612451357911  0.4999968168680151
  0.4222824926681163  0.1750116804005537 -0.0000031932509511
  0.0414150620758304  0.4162936958209442  0.4999968071475120
  0.4248987250247993  0.4311218992156263  0.4999968251166644
  0.2157354372596339  0.3323017305225635 -0.0000031859127358
  0.2051127330933018  0.0680386726300106  0.4999968245666099
  0.1284921230214167  0.2460686347353129  0.4999968216480333
  0.0807062686709107  0.0756985309201870  0.4999968125409954
  0.2570469148081563  0.2546416458907624  0.4999968276682660
  0.0870192859963235  0.3289243501077234 -0.0000031864231478
  0.2935113218446443  0.6749464520297054 -0.0000031797746648
  0.3794642629593103  0.5215223914590394  0.9999968250763315
  0.2533450362301909  0.5039973555061386  0.9999968203025381
  0.4601589767007910  0.8538006377985888 -0.0000031840863392
  0.2897800284319720  0.9202960806089809  0.4999968170981883
  0.3766420036021903  0.7656337884857184  0.4999968147745764
  0.1253426298361378  0.5031718839211169 -0.0000031790902054
  0.0433405671428120  0.6591818440146755 -0.0000031803682147
  0.4615575491349064  0.5995300931701563  0.4999968226976876
  0.4199711299272705  0.6867698760023119 -0.0000031769301683
  0.0421499225470460  0.9026062238201745  0.4999968248825318
  0.4140156807797503  0.9289994500127772  0.4999968143813141
  0.2093157400910639  0.8354953761048191 -0.0000031766951160
  0.2129555772154266  0.5893117230401245  0.4999968188192070
  0.1229790987993727  0.7439791042990881  0.4999968201370839
  0.0865862475648487  0.5780524031877982  0.4999968188309740
  0.2503564622830073  0.7546840692136073  0.4999968250281581
  0.0812499742073736  0.8261208642397403 -0.0000031777348961
  0.7814179262801509  0.1621783798024469 -0.0000031837813486
  0.8648324279034488 -0.0045117433281983  0.9999968133521711
  0.7437502831184795 -0.0032471656710837  0.9999968198476340
  0.9586213940486377  0.3297319683168661 -0.0000031873778228
  0.7949868471069378  0.4135317325464433  0.4999968105567538
  0.8763180515925812  0.2387921579407390  0.4999968093007048
  0.6258732535498219  0.0144970139021645 -0.0000031782572078
  0.9406441506568425  0.0727039642654664  0.4999968197500574
  0.9166362164401496  0.1588389623872219 -0.0000031860087673
  0.5482982059102534  0.4142139802914779  0.4999968112017570
  0.9186567856470335  0.4045279327471993  0.4999968117885434
  0.7119276596619684  0.3190933341398469 -0.0000031845262168
  0.6982314490803988  0.0933010612559212  0.4999968195236557
  0.6421511019786820  0.2409622742968402  0.4999968065828209
  0.5774995690242632  0.0950352539752498  0.4999968212203340
  0.7605523117586489  0.2504099628441366  0.4999968160238634
  0.5917637610650430  0.3212774960618951 -0.0000031919852906
  0.7916548327053230  0.6596674379532783 -0.0000031925679445
  0.8749032502944550  0.4890042005498282  0.9999968088041673
  0.7501503957364295  0.4916206475305170  0.9999968083826902
  0.9566973926434195  0.8168488394016971 -0.0000031909847655
  0.7884408230564611  0.9102124386250952  0.4999968182596541
  0.8744655258905938  0.7392550161492277  0.4999968137724329
  0.6259834096239849  0.4945431856577567 -0.0000031868827709
  0.5440340625209666  0.6750028796163619 -0.0000031913956140
  0.9586511778785287  0.5719742356373064  0.4999968035718843
  0.9168026858855810  0.6532469842856785 -0.0000031856333234
  0.5410813432708593  0.9302961699203040  0.4999968132319047
  0.9148659507986464  0.9056291168422864  0.4999968147603088
  0.7075651903745562  0.8294762331529754 -0.0000031863700432
  0.7091002932677769  0.5763615231160145  0.4999968161612934
  0.6249443128142326  0.7525128030966091  0.4999968103439625
  0.5851615914912036  0.5844784687536556  0.4999968101615600
  0.7490468051517739  0.7429353605657698  0.4999968142005621
  0.5841512904888655  0.8434526305403416 -0.0000031863157920
  0.3339251083060080  0.8412732622747843 -0.0000031802074861
  0.3376922866559440  0.6032454366795130  0.4999968269383155
 -0.0009999523126769  0.4962148835639592 -0.0000031868361110
  0.1686149378108084  0.6694953035882102 -0.0000031734860218
 -0.0010169812199411  0.7368839914784434  0.4999968118618124
  0.1659782016296174  0.9053231569061888  0.4999968317838181
  0.8347418726598976  0.3237254241302476 -0.0000031906375891
  0.8180652934113699  0.0791811212388191  0.4999968200867541
  0.5060659191683835  0.0221110257974862 -0.0000031752746049
  0.5203445645815488  0.2425601032145625  0.4999968184060265
  0.6709963588499350  0.4081063861630927  0.4999968178337860
  0.8334737631462438  0.8270743532294713 -0.0000031844773576
  0.8343355009079000  0.5763195028338592  0.4999968049136412
  0.5023486267161740  0.5071761272232842 -0.0000031806658601
  0.6671989723327103  0.6625325551360338 -0.0000031917014239
  0.5010464762963016  0.7646161960800523  0.4999968103508169
  0.6651626151784170  0.9219652577388778  0.4999968241245875
  0.3416288852362800  0.3404424335753439 -0.0000032211871197
  0.3345256526617573  0.0980757988488537  0.4999968462007073
 -0.0041634940446648 -0.0051163520901036 -0.0000031922026029
  0.1699304066369276  0.1648821748599107 -0.0000031882540244
  0.0041454689288180  0.2382693461488224  0.4999968203604876
  0.1719854530351158  0.4122046427322019  0.4999968189977496
