POSCAR file written by OVITO            
   1.0000000000000000     
    25.0840961048809703   -1.1444480406523578   -0.0000232065343535
    -0.8103433317338616   18.2178403640993771    0.0000107700355980
    -0.0000044418276368    0.0000027696450622    4.9316206339563760
   Mg   Nd
    87     6
Direct
  0.2936034408031694  0.1735867849198079 -0.0000031783991850
  0.3808271384173805  0.0039655538793628  0.9999976117299706
  0.2536367315664491  0.0042296316719684  0.9999973101798347
  0.4748211788745365  0.3355764377483668  0.0000026680373539
  0.3030040172527312  0.4359845900106959  0.4999977536985103
  0.3984629359659730  0.2595731664418536  0.4999983014428084
  0.1270844503248692 -0.0111684216970680 -0.0000036934736651
  0.0422534496114582  0.1623796463247666 -0.0000039498464012
  0.4591073273948239  0.0853408251686509  0.4999954280624665
  0.4214363658881513  0.1720244506113078 -0.0000023814811266
  0.0417690514595215  0.4189987879784215  0.4999960921727395
  0.4256026662134053  0.4271318631414463  0.4999998079048186
  0.2148027992982100  0.3316207848575826 -0.0000028611243646
  0.2047784799940293  0.0683307938982354  0.4999969851773866
  0.1255234664916781  0.2471932329809094  0.4999961405531451
  0.0801664885114288  0.0780612811515873  0.4999962135301660
  0.2557143727587088  0.2532095123865665  0.4999969821719279
  0.0844767506488835  0.3311144110065897 -0.0000039257673693
  0.2941322594340105  0.6726486185075745 -0.0000022346989421
  0.3801494042678506  0.5171428874035174  0.9999988231880383
  0.2535340059490301  0.5020670627948742  0.9999972188381018
  0.4606699532158419  0.8497547887722452 -0.0000020497370218
  0.2903369189347996  0.9181487304453119  0.4999974877552766
  0.3770764116603667  0.7624990273681043  0.4999982816860534
  0.1250878135270270  0.5033374350381742 -0.0000037324558045
  0.0435720930927082  0.6598535893234269 -0.0000041585129228
  0.4625658221961607  0.5955398002524921  0.4999997306990400
  0.4203986226452814  0.6828354987474879 -0.0000011774177452
  0.0434283386503054  0.9054048917660398  0.4999958984493561
  0.4142981403200485  0.9256409580767992  0.4999978693906063
  0.2096253479382082  0.8342850770835654 -0.0000029884061200
  0.2143630552601902  0.5881180527286564  0.4999969974913278
  0.1237554607197224  0.7449074242492056  0.4999964568840986
  0.0883422561157580  0.5794327106474887  0.4999958887926366
  0.2509254567159442  0.7532950889636492  0.4999973734764703
  0.0812962262986649  0.8271966908639684 -0.0000037546770011
  0.7792284083463348  0.1658981145068495 -0.0000123900156600
  0.8661907566652017 -0.0048836222149409  0.9999930955605385
  0.7456374705676511 -0.0016627965129002  0.9999914609222363
  0.9519957854104463  0.3312646026552025 -0.0000047351664338
  0.7993488823836497  0.4223737316259903  0.4999951365781793
  0.8701929973452770  0.2465051801539326  0.4999939119189538
  0.6276571032922691  0.0150492167423936 -0.0000110783844750
  0.9416432494494368  0.0751932152276338  0.4999947135266828
  0.9135070152561859  0.1607842311790520 -0.0000056042718320
  0.5512932255706152  0.4125279885876135  0.5000058505879932
  0.9201800095135673  0.4104360749932214  0.4999951430280052
  0.6999167885178306  0.0955301627454884  0.4999880067981226
  0.6375672471803021  0.2352209635805706  0.5000324678506630
  0.5772430497718999  0.0892609887071642  0.4999863489760324
  0.7526252070063810  0.2632569179357208  0.4999845113539362
  0.5981736512121464  0.3231963727905939  0.0000159833393962
  0.7913371136831403  0.6558365490933920 -0.0000050028932966
  0.8738591447409756  0.4922313830062458  0.9999952528578091
  0.7479394072719541  0.4819909258018640  0.9999967856950455
  0.9567990630386622  0.8206288583149265 -0.0000049132320270
  0.7893322875532589  0.9096558895861748  0.4999930640711930
  0.8756992813344033  0.7435934257528537  0.4999947283457032
  0.6270115920229108  0.4942046065912919  0.0000018852099537
  0.5449280701339750  0.6737360740223034 -0.0000011627657972
  0.9613110320876633  0.5765466831202924  0.4999955348792195
  0.9171527509854233  0.6569485729321834 -0.0000047875849447
  0.5408806941988645  0.9257604158844360  0.4999953656289517
  0.9161332065273452  0.9086194123290797  0.4999945459299970
  0.7081980333069205  0.8299856648398332 -0.0000060871370245
  0.7110045715667895  0.5714657900129864  0.4999970222205939
  0.6259002638425430  0.7534867832956803  0.4999964418880841
  0.5867668706386056  0.5849455418972355  0.4999999800178674
  0.7496428664845612  0.7405631049153447  0.4999947068984661
  0.5850469399643403  0.8428204738492134 -0.0000042463633739
  0.3344217219415513  0.8387114810424803 -0.0000022125323509
  0.3389950540370781  0.6003004606995138  0.4999983216868714
 -0.0018106934134819  0.4963712322429845 -0.0000041744366428
  0.1691122081498371  0.6685856422245408 -0.0000032166388910
  0.0001225797668550  0.7408127007156895  0.4999955331453524
  0.1670267620745926  0.9055817728863426  0.4999965622847528
  0.8233351369093144  0.3299815877470443 -0.0000074491810987
  0.8197125034724126  0.0807852245842103  0.4999905525368212
  0.5066332658684993  0.0179435623291595 -0.0000060329163556
  0.5195755175267740  0.2407723685239194  0.5000066735005241
  0.6752523660797919  0.4000226191045601  0.5000040150752374
  0.8330461549180390  0.8258348420465542 -0.0000059443384153
  0.8375473460687725  0.5823358590040675  0.4999951824647735
  0.5038174091639550  0.5044061722443145  0.0000014108564234
  0.6681691887395531  0.6622214972389725 -0.0000031004325941
  0.5014393875528491  0.7606078602451548  0.4999983348974987
  0.6659677062212452  0.9235031813395072  0.4999919814923381
  0.3410633642480040  0.3368668088043821 -0.0000015974925095
  0.3340952349264987  0.0958009808500709  0.4999969310286992
 -0.0031706638386453 -0.0019697743574466 -0.0000047541162510
  0.1683896640439246  0.1655585193595429 -0.0000034064278668
  0.0000977545548148  0.2420777912971827  0.4999955710823384
  0.1717507036988643  0.4117932383647461  0.4999963788780137
