POSCAR file written by OVITO            
   1.00000000000000     
    25.0672220471355978   -1.2159311282484506    0.0000002966517823
    -0.8528615206112499   18.3176068584241207   -0.0000000220682274
     0.0000000726032740   -0.0000000039085590    4.9369839690558104
   Mg   Nd
    89     6
Direct
  0.2957666948810386  0.1779046229063558 -0.0000031076816083
  0.3795547971184229 -0.0023441191741326  0.9999968923781311
  0.2544746354520136  0.0049456886802757  0.9999969128372519
  0.4678510333618646  0.3391940473001963 -0.0000031382293929
  0.3048881625372155  0.4569465771536423  0.4999969107276784
  0.3888990198590641  0.2619303078908992  0.4999968972116496
  0.1289473389180905 -0.0127987591765431 -0.0000030684899716
  0.0432918719942326  0.1598973902336901 -0.0000030338771751
  0.4643995854634921  0.0903431876267719  0.4999968615854835
  0.4198521934683807  0.1730365426438397 -0.0000031207669722
  0.0406774460418718  0.4189916874446472  0.4999969934688340
  0.4225252250198721  0.4274879205722831  0.4999968717241394
  0.2101457358516976  0.3288056812081688 -0.0000030529923159
  0.2056223706972674  0.0678711719226184  0.4999969333712602
  0.1271154919741717  0.2466043031525182  0.4999969455916385
  0.0814650116507182  0.0767336177091133  0.4999969496902145
  0.2549367972115410  0.2551349983230161  0.4999969238444176
  0.0844441380252901  0.3294882694612269 -0.0000030313432054
  0.3025889145273217  0.6607390268383526 -0.0000031233641980
  0.3760340197198623  0.5262076261901651  0.9999968837282068
  0.2476971799432315  0.4974759150613413  0.9999969275108805
  0.4643256752458324  0.8456266166561551 -0.0000031393503872
  0.2946639360905985  0.9164459714868833  0.4999968966843505
  0.3779175518564503  0.7433665162293213  0.4999968487526723
  0.1222931342965594  0.5007457822766018 -0.0000030379848079
  0.0496565096437151  0.6587084380090700 -0.0000030363848314
  0.4551309590294911  0.5944886705054506  0.4999968414202718
  0.4288307930865688  0.6832518419150433 -0.0000031498929392
  0.0467453350596458  0.9033822802842998  0.4999969395687983
  0.4186022014463568  0.9220634481634210  0.4999968711841032
  0.2136905209324121  0.8328223242663946 -0.0000030918222063
  0.1301425786995636  0.7426939834139401  0.4999969559021328
  0.0917355173956779  0.5786737786379039  0.4999969500309232
  0.2556211016264239  0.7522079608428492  0.4999969032844653
  0.0861282929967001  0.8256378704590822 -0.0000030508860682
  0.7903207581922612  0.1647037486115192 -0.0000030863527899
  0.8679774734409409 -0.0032091594404378  0.9999969428935215
  0.7469762748635530 -0.0006214718504258  0.9999968935079696
  0.9561658668784719  0.3327016742586738 -0.0000030335531535
  0.7915495230666758  0.4153431429674749  0.4999969156757368
  0.8718587034047902  0.2430809612674284  0.4999969565229714
  0.6257794607419910  0.0028385732929943 -0.0000031387785182
  0.5455888369668566  0.1725764606968134 -0.0000031461720062
  0.9449665595973795  0.0734030323554722  0.4999969663294647
  0.9170864988998552  0.1605668944125978 -0.0000030346168378
  0.5454755319207912  0.4220551771336775  0.4999968426100654
  0.9168704405578071  0.4080917409120985  0.4999969744617604
  0.7107936533712542  0.3351656097012015 -0.0000030948510607
  0.7045061363924990  0.0842418462983842  0.4999968823740092
  0.6304899263720968  0.2532154428125537  0.4999968625468742
  0.5846008448360410  0.0886214299733223  0.4999968534835478
  0.7512069548215795  0.2485327048937985  0.4999969120111025
  0.5894265543862840  0.3376067256815560 -0.0000031554192451
  0.7972026185517354  0.6644029301522597 -0.0000030684346086
  0.8744212066172832  0.4924808206813641  0.9999969628572305
  0.7504088628096806  0.5010917090464236  0.9999969035196109
  0.9626526826593441  0.8167665164351453 -0.0000030235616397
  0.7928883287125125  0.9136285744172991  0.4999969243521382
  0.8810392175474729  0.7396261855815007  0.4999969780020590
  0.6251769359096835  0.5051547352541675 -0.0000031510379059
  0.5497303312768130  0.6714098929231249 -0.0000031442640772
  0.9613039399828534  0.5742488757339423  0.4999970115644923
  0.9219448594116516  0.6542280696378912 -0.0000029912398985
  0.5450725846470431  0.9216022545118250  0.4999968583300128
  0.9190244039962703  0.9063863496007279  0.4999969709908676
  0.7141995776894172  0.8319925887751539 -0.0000031037250794
  0.7105751086924842  0.5843946413860097  0.4999968850104145
  0.6301370036899580  0.7506867115180681  0.4999968628600681
  0.5843781266362602  0.5872830860114298  0.4999968437099361
  0.7555894213250707  0.7474777972385495  0.4999969130856984
  0.5889710824369844  0.8365521915891693 -0.0000031344834668
  0.3387928369338627  0.8284323466387195 -0.0000031262598318
  0.2239207781159863  0.5880106434012385  0.4999969122432728
 -0.0020864908665968  0.4982862412384476 -0.0000029864242309
  0.1769332655258905  0.6636395168149711 -0.0000030767991980
  0.0062530603259262  0.7368105938151950  0.4999969689410048
  0.1713089613985212  0.9045119227997448  0.4999969302157079
  0.8324332959073563  0.3291688640948799 -0.0000030711583425
  0.8245576661730505  0.0805276645346715  0.4999969152528289
  0.5039765428724011  0.0082084825261615 -0.0000031372919291
  0.6679158063929584  0.1691887612669027 -0.0000031201180654
  0.5093908349456708  0.2550380257817721  0.4999968509341660
  0.6680643641556336  0.4200621224744462  0.4999968748612144
  0.8400977619419973  0.8293020124518050 -0.0000030382232162
  0.8357678538783011  0.5783851857258219  0.4999969533295149
  0.4986674347588815  0.5084773778979182 -0.0000031515449417
  0.6728668154292254  0.6678255136802478 -0.0000031231821811
  0.5046544265531074  0.7562910129952489  0.4999968422972386
  0.6691951312133438  0.9168683384739895  0.4999968740144103
  0.3354035037912623  0.3473832579863229 -0.0000031071330995
  0.3353396699207422  0.0931680522037050  0.4999969172553949
 -0.0014259339123867 -0.0050965071242599 -0.0000030542769481
  0.1692451193560952  0.1631056996075310 -0.0000030389964195
  0.0017099196921500  0.2408129066522358  0.4999969613093438
  0.1724583630702652  0.4129747584747130  0.4999969101135142
