POSCAR file written by OVITO            
   1.00000000000000     
    24.8869247001539478   -0.8175814947720802   -0.0000123297654379
    -0.5795717867429597   18.1229214806861201    0.0000015952962731
    -0.0000024561908561    0.0000003763203078    4.9613271924878042
   Mg   Nd
    86     6
Direct
  0.2937475013394585  0.1698798776140134 -0.0000027752823239
  0.3871486786538703  0.0031063400751240  0.9999974941115443
  0.2565778813053502  0.0016728596923101  0.9999970152802986
  0.4693634030669005  0.3396175006168015 -0.0000017216364569
  0.2999408232381473  0.4355981207540991  0.4999971906791793
  0.3904061998560771  0.2584261545744746  0.4999975898166721
  0.1287180822783601 -0.0121487785611296 -0.0000034684491896
  0.0395691619008291  0.1640326823046422 -0.0000037336825712
  0.4688663435324049  0.0868716017866904  0.4999978674833906
  0.4227294475774254  0.1738106506672098 -0.0000022654794346
  0.0371432948295022  0.4225121326634143  0.4999964383350479
  0.4220102023382831  0.4224951458817330  0.4999978143574384
  0.2090787208012458  0.3297456846905231 -0.0000028731639982
  0.2068325723362157  0.0673240955798743  0.4999968395866433
  0.1227762392933547  0.2471487727144383  0.4999965290525780
  0.0801392223905571  0.0786343736453112  0.4999964074458649
  0.2529887489898373  0.2507361302973069  0.4999969626700425
  0.0798613293164058  0.3321114485647756 -0.0000035320888479
  0.2960249683527580  0.6701581385006389 -0.0000028414460222
  0.3804716930143863  0.5110941041425676  0.9999975174034218
  0.2507061160361091  0.4994375524516391  0.9999970314181847
  0.4636440536265495  0.8409020701741460 -0.0000024654727166
  0.2927458227111939  0.9159552293204666  0.4999971310905587
  0.3787665675711838  0.7600713558621158  0.4999974186258789
  0.1200403951954536  0.5021429309098353 -0.0000033381473617
  0.0440528404730978  0.6590749544687686 -0.0000036919478010
  0.4653468022316948  0.5863213166174726  0.4999979373069112
  0.4226045236970734  0.6749026132748140 -0.0000023976187639
  0.0447421769028538  0.9065140798982669  0.4999962655039661
  0.4169572790384104  0.9243096985369313  0.4999974707331792
  0.2112457260001564  0.8319083940151196 -0.0000031812703404
  0.2161938138640478  0.5867549520616653  0.4999968894538377
  0.1272206045124666  0.7447392180943544  0.4999965497450403
  0.0896295515407858  0.5806211406609652  0.4999963963797205
  0.2534429844781028  0.7516416731327268  0.4999970122054142
  0.0827346199736105  0.8269156300778190 -0.0000035867733025
  0.7788754822482903  0.1689449552470444 -0.0000062833669666
  0.8636816599666712 -0.0068560717016392  0.9999952175141783
  0.7363386745698173  0.0040530003647260  0.9999943233524068
  0.9471903429408298  0.3339415402717735 -0.0000040823769159
  0.7887149793138943  0.4335189928052962  0.4999939605970705
  0.8650793853942673  0.2476933248422899  0.4999949746363642
  0.5540661650536407  0.1673489392463416 -0.0000003724625943
  0.9429406152203111  0.0772883328900265  0.4999957127844178
  0.9105272491019343  0.1615426609689154 -0.0000045074287987
  0.5482814910027607  0.4218594293730880  0.4999987524123753
  0.9126273717057178  0.4155407518291726  0.4999958766590444
  0.7047364137727906  0.1052303527479589  0.4999926453120862
  0.6287349927503502  0.2310913124286337  0.5000012534276342
  0.5879664861003843  0.0664174734234581  0.4999999968840752
  0.7464346687720430  0.2707367318985240  0.4999929165160373
  0.5960116859807132  0.3330251752729754 -0.0000002503220309
  0.7897858780588104  0.6454869281091340 -0.0000035655910220
  0.8642486909600833  0.4951554069010096  0.9999957662696789
  0.9582605203496544  0.8214898574262562 -0.0000040336680927
  0.7875554173576655  0.9099383591224385  0.4999953949316265
  0.8804351994388389  0.7462654096469411  0.4999958929123733
  0.6368731197672928  0.4988866497308620 -0.0000011758039718
  0.5480382934076740  0.6764988314307514 -0.0000021236308503
  0.9638178431239589  0.5807756694648920  0.4999962636570205
  0.9167433788958856  0.6575266383048003 -0.0000038591916100
  0.5390258047646133  0.9086981471087422  0.4999974931829025
  0.9162134768873114  0.9113061439067021  0.4999956959889990
  0.7122688305680577  0.8343221090190551 -0.0000040918039141
  0.7150183407688891  0.5690623414185328  0.4999978077533248
  0.6280325269286124  0.7608203416875543  0.4999971678012851
  0.5916487251520246  0.5898617837270649  0.4999981278264773
  0.7530959432221577  0.7380664715743264  0.4999963480178485
  0.5917941523449651  0.8514926209233217 -0.0000028589244124
  0.3368502289199087  0.8379512269668837 -0.0000027196150689
  0.3420952130972590  0.5977364987361043  0.4999973465249404
 -0.0086963767442039  0.4975995519067714 -0.0000036406827923
  0.1703435966144732  0.6652257853855986 -0.0000032795339074
  0.0042732707182919  0.7429192188627596  0.4999961399639172
  0.1691133469625853  0.9049759706577242  0.4999966601785052
  0.8179574255809847  0.3335317074533233 -0.0000059253070533
  0.8212708028966984  0.0796613546037160  0.4999945888538493
  0.5167809670513951  0.0019347583426967 -0.0000018851779488
  0.5113739824697646  0.2540549583420710  0.4999989004256862
  0.6686124798814412  0.3996090923174473  0.4999999712929848
  0.8342730364104988  0.8210367342487519 -0.0000042636254099
  0.8420540434222894  0.5869970406037758  0.4999961623057780
  0.5082046234418350  0.5067402977712082 -0.0000017193452492
  0.6700060230835885  0.6678198059924260 -0.0000026061110674
  0.5011582298011212  0.7486482110153146  0.4999977024837050
  0.6642597440143863  0.9323422109805758  0.4999953249167557
  0.3346402025107386  0.3352221601737607 -0.0000026199395987
  0.3379369656806626  0.0921081379590500  0.4999970851713660
 -0.0027024504755582 -0.0012629803535072 -0.0000040012249899
  0.1669957676178970  0.1643272715095592 -0.0000033010133248
 -0.0036862725599340  0.2449301759502528  0.4999960524119353
  0.1687483504487578  0.4116261854008881  0.4999964019551504
