POSCAR file written by OVITO            
   1.00000000000000     
    25.2768074582200697    1.8826380479977276    0.0002107264107103
     1.3342365820924840   16.9700865436833723    0.0007307046754285
     0.0000836149031773   -0.0001948837917310    5.1537804451436937
   Mg   Nd
    86     6
Direct
  0.3015897149271944  0.1391324904519123  0.0107862508007380
  0.3672722709811401 -0.0230091406041999  0.0108893696286927
  0.2459806760795244 -0.0234371193766655  0.0107565807056815
  0.5450721787548091  0.3079456215533042  0.0110407886075143
  0.2950791354553418  0.4195018350662134  0.5108011959953356
  0.4826157299687205  0.2560873826408465  0.5109991728872486
  0.1170779951485478 -0.0309018669280674  0.0107413969569052
  0.0261142455570407  0.1689901040277623  0.0108343994213245
  0.5665750221386111  0.0941618629038911  0.5109759349447653
  0.4958770936789391  0.1503411777728161  0.0109672486616469
  0.0378679652555791  0.4582007291018446  0.5107628822687105
  0.4133616330701210  0.4188397800659717  0.5108738099587635
  0.2219289835897272  0.3079221316466181  0.0107763835695605
  0.2440436502513473  0.0853292519393131  0.5107324995595250
  0.1436993351225933  0.2440807611740682  0.5107866503184468
  0.0820380707109740  0.0873003330297551  0.5108001476204793
  0.2825297024734020  0.2440303281363626  0.5108020713827477
  0.0880817856825632  0.3319104218130773  0.0108358262363128
  0.2735753020914222  0.6528436079142983  0.0107866200125240
  0.3498165133703868  0.4881102078980182  0.0108088127574960
  0.2284019852455607  0.4883143588162351  0.0107596494270987
  0.4429180872416038  0.8037861001430540  0.0108797515112878
  0.3127054082311914  0.9220516367646527  0.5107991527319181
  0.3862754636023172  0.7499719636655512  0.5108064702725816
  0.0970820029782022  0.5060118617753505  0.0107724706792216
  0.0133958977759419  0.6587080476161056  0.0107651702577966
  0.4622917253556720  0.5821299900339546  0.5108713487729821
  0.3971208673272682  0.6442163704366108  0.0108214421334186
  0.0577561236986744  0.9196702199774157  0.5107498114813390
  0.4319775195043615  0.9070005181832602  0.5108997230015022
  0.1964248142186018  0.8146631037204527  0.0107555186864583
  0.2155073673049396  0.5944712899266424  0.5107607043378828
  0.1387884278828722  0.7665296989029026  0.5107645129824224
  0.0858999169016303  0.6118348426797918  0.5107571851767317
  0.2625220381490732  0.7609779166800665  0.5107745383686909
  0.0666007375815871  0.8137550529440992  0.0107530319884853
  0.7623864378198442  0.1563173938737601  0.0109356556526452
  0.8526580813896274 -0.0060593098460109  0.0108856266664705
  0.7253006886571531 -0.0105295703168449  0.0109679965436608
  0.9295329643521053  0.3319638674957266  0.0108784728646329
  0.7895053586837899  0.4332751348100687  0.5109050252894269
  0.8736733221284666  0.2752789505565494  0.5108890012368992
  0.6010428598456214 -0.0164810168618945  0.0109686233474536
  0.9561046097657750  0.1121850270321720  0.5108097304732975
  0.8939908747893426  0.1657722081259894  0.0108617851962580
  0.5390655106594117  0.4179979424794953  0.5110240802907686
  0.9140906414978206  0.4416694360952185  0.5108516439604008
  0.7029181503795161  0.0990046498244129  0.5109846219582299
  0.6761306433575462  0.3145167541526053  0.0109909368732794
  0.6318299376061509  0.1498846737756059  0.0109776054904513
  0.7471424475169233  0.2647753628271101  0.5109265031398431
  0.7631705830886480  0.6559643428719838  0.0109316576146487
  0.8440990760148511  0.4934983036508961  0.0108772048617838
  0.7193331108922425  0.4844336457818469  0.0109490668343007
  0.9329536624658993  0.8266922647970618  0.0108047790170057
  0.7924976573998694  0.9366836358194175  0.5109252495951671
  0.8749037752814930  0.7717187520179728  0.5108654444612409
  0.5946598349963984  0.4753394670706363  0.0110063732311022
  0.5190512884257600  0.6384711448903465  0.0109154556866385
  0.9555891641683704  0.6119920605520458  0.5107961274510158
  0.8873383731762041  0.6615254548083023  0.0108429482057658
  0.5481684954898122  0.9197458539370490  0.5109510203403020
  0.9190269650073971  0.9389242226420883  0.5107948068533475
  0.6837971198306648  0.8190141158102449  0.0109596694486183
  0.7098101922083531  0.5940725571543402  0.5109596257779975
  0.6304359667345047  0.7564884058263367  0.5109622583618016
  0.5869192312226834  0.5848704650393260  0.5109841983373762
  0.7522155987880186  0.7651455789909702  0.5109675742465831
  0.5620881495900871  0.8119064675956560  0.0109271388608376
  0.3209244281589951  0.8124060034854146  0.0107848664263440
  0.3387117638490437  0.5923282818994543  0.5108038233799993
 -0.0288732868871368  0.4907886761308671  0.0108081408299407
  0.1485181539546459  0.6552913621059172  0.0107439910571191
  0.0018658827764217  0.7744695633072526  0.5107668154832992
  0.1851622029229510  0.9377843516957717  0.5107189491339640
  0.8028153529250808  0.3227470307665644  0.0109026884267886
  0.8328493194493281  0.1039199966376291  0.5108973575275435
  0.4821806656673953 -0.0217127206163012  0.0109787632483020
  0.6173896564355308  0.2573805835576081  0.5109762104705300
  0.6650601716155141  0.4243285219526250  0.5110080666602754
  0.8067175036220553  0.8259374418905456  0.0109541677526214
  0.8328412524502062  0.6027106887807073  0.5108841776422941
  0.4702307721137165  0.4689035076973395  0.0109189159059654
  0.6400874241203818  0.6475544332768773  0.0109871730979181
  0.5092342409064564  0.7460060610284344  0.5109043067159822
  0.6689059309252080  0.9295832250041711  0.5109403611677291
  0.3778829877553171  0.2901959715953498  0.0108870981206585
  0.4073466639942342  0.1037367720880645  0.5109216738760968
 -0.0109067263693517 -0.0035982546196284  0.0107744422226212
  0.1589494311897352  0.1422923647908777  0.0107814727547677
  0.0116412587380768  0.2787013726790015  0.5108479415303159
  0.1646112371483153  0.4185775700917308  0.5107828962953358
