POSCAR file written by OVITO            
   1.00000000000000     
    24.8905948983805700    1.8089406849551843   -0.0395797274839512
     1.2817922034713456   17.3851844107481348    0.0296289048470275
    -0.0088726041316284    0.0094076109840797    5.1570496269436603
   Mg   Nd
    85     6
Direct
  0.2922186861376882  0.1376533423656779 -0.0012205092376119
  0.3787476371766716 -0.0422318410809539  0.0008419714915956
  0.2572019492118109 -0.0253060832303642  0.9977346917379772
  0.4622743583325613  0.3072101961436137  0.0014699222918270
  0.3007417638413608  0.4236952886244411  0.4982944655369270
  0.4047925559499624  0.2419002375371760  0.5005820556338824
  0.1323799244967352 -0.0185831198584842 -0.0065696149788529
  0.0398448011382733  0.1837557249883568 -0.0096502154274120
  0.4915915247872397  0.0883545185913286  0.5008611679712194
  0.4205928641743844  0.1421635927282932  0.0006076005737274
  0.0277009202207068  0.4363641930082533  0.4946163509030355
  0.4297415573459598  0.4113491343079199  0.5011233137900349
  0.2004470184796069  0.3212256681055773 -0.0026947475149879
  0.2225929766170285  0.0672857489016651  0.4970280173741855
  0.1154454933015884  0.2554493910508761  0.4943101198043368
  0.0855357773917158  0.0888813084760691  0.4925320172635178
  0.2530611712983873  0.2391466551341023  0.4981597417419667
  0.0739759501489684  0.3420842330845367 -0.0058889798881823
  0.2848200100164147  0.6406751377295400 -0.0014749344135344
  0.3661550556939269  0.4792751330257664 -0.0001316679430774
  0.2371391867679984  0.4825677715298488 -0.0031406370917088
  0.4567582090664838  0.8004635557118134  0.0017312924361551
  0.3208686633862625  0.9011299589782158  0.4993625032570521
  0.4022233340723620  0.7420522744218020  0.5007269641291685
  0.1013912329926761  0.5035680579768537 -0.0054307445569997
  0.0300951082252334  0.6709135777829783 -0.0060152239091400
  0.4802628266831690  0.5793110244675265  0.5020671686208761
  0.4121186244113106  0.6362031195875688  0.0009481351601921
  0.0683855340813347  0.9221965748606549  0.4930464387894414
  0.4473328371215987  0.9084485120926735  0.5015443252222167
  0.2085408899735961  0.8067198744474714 -0.0038345597619902
  0.2225845429934181  0.5868149151962881  0.4968732392152349
  0.1457088130135528  0.7542746882025657  0.4951740313702480
  0.0922265082237798  0.5977425353193238  0.4942765183144032
  0.2740041783103608  0.7435603780992929  0.4979229689474839
  0.0810751056729369  0.8274696192783831 -0.0060158626317299
  0.7912400854273559  0.1799831869744762 -0.0111855312130718
  0.8708635382605617  0.0075475312493004  0.9916138476514781
  0.7466347207190847  0.0049731750971550  0.9945575732758023
  0.9474933090452673  0.3650386387905885 -0.0136970074519326
  0.8350482291612136  0.2585309277325767  0.4852235329644478
  0.6223112858450374 -0.0082777602420800 -0.0004419714093832
  0.5470071422551223  0.1508722454486672 -0.0000563810580770
  0.9052768305239299  0.0994530010543482  0.4884798625362157
  0.9110284832860588  0.1944998596462705 -0.0117497628196084
  0.5652724355632041  0.4214631056945408  0.5023594285565894
  0.8961414379301635  0.4354063468576328  0.4848079038288276
  0.7075590859149412  0.3258290590859210  0.2225928364453302
  0.6193140701860624  0.0977965541978854  0.4981172847539881
  0.5886549898724682  0.3181189639705565  0.0011747583404218
  0.7771010563707382  0.6751060636310745  0.0061494476742452
  0.8536027565591281  0.5208375718142469  0.9832759920201444
  0.7371886734249565  0.4951507260282201  0.0353223102481345
  0.9538401446114496  0.8389990114895023 -0.0075362494357452
  0.8169429960245915  0.9474078354306406  0.4942499547894362
  0.8932103701702507  0.7818628393979933  0.4937625034533974
  0.6198585073749545  0.4827344242374600  0.0064259878930333
  0.5358879029252284  0.6424245293538510  0.0039316324500026
  0.9686250936486682  0.6173890999722279  0.4946020777773324
  0.9021238685066333  0.6823676915120811 -0.0073027196047533
  0.5720191842117363  0.9254692589027206  0.5011556205222275
  0.9436095980151795  0.9324427831634033  0.4912338253103550
  0.6996703119882585  0.8327150889128776  0.0019247815846554
  0.7295555809335491  0.6046557842099769  0.5204254499440139
  0.6492635726609144  0.7640653843779095  0.5052492826937921
  0.6077581009068626  0.5883420431767483  0.5071340682342340
  0.7705023965126255  0.7789203657511869  0.5020704468269289
  0.5769543196457608  0.8194103960394407  0.0027445420862588
  0.3320734583894833  0.7969431496501167 -0.0006188568202392
  0.3534491898527001  0.5839809031318691  0.4998420946336895
 -0.0240854419337220  0.5221444120768975 -0.0046887607400166
  0.1571753558889488  0.6490430052097244 -0.0044492255451731
  0.0198367398708424  0.7700886797396196  0.4934877989521773
  0.1949282466363017  0.9062602201885888  0.4951082558083719
  0.8257421762497152  0.3539093692876041 -0.0137096528614922
  0.7465686779044545  0.1159956520860953  0.4905381059466623
  0.4968363662480915 -0.0180814161815168  0.0011328563556950
  0.6695135535605996  0.1660799427920943 -0.0061445111057650
  0.5356654671053033  0.2554374920580482  0.5015120383817836
  0.8247759843603816  0.8428295809701081 -0.0033559567645865
  0.8485107670689697  0.6195191784517395  0.4906725089702973
  0.4946018158962686  0.4742059293894971  0.0016574361834270
  0.6570726876279319  0.6552604918992004  0.0105833152196747
  0.5271894973921805  0.7498442975393633  0.5029055426900935
  0.6947913081475926  0.9386508939294441  0.4987299450203099
  0.3281033929476965  0.3056693932943539 -0.0006249301440983
  0.3558009781177373  0.0760358718942138  0.5002915509089924
 -0.0004228101809722  0.0228871176558678 -0.0092817347743719
  0.1659212512531674  0.1590995956125029 -0.0045025964218625
 -0.0196117158199347  0.2550053702441776  0.4881004251932323
  0.1663847381771958  0.4151396885343753  0.4961615358229106
