POSCAR file written by OVITO            
   1.00000000000000     
    24.7198678966948648    0.3921751486017296    0.0000003105936917
     0.2854543410476021   17.4339984982301957   -0.0000002997008771
    -0.0000000892008502   -0.0000001098600063    5.1504277780450938
   Mg   Nd
    87     6
Direct
  0.2941727186157529  0.1863771234707484 -0.0000032163853496
  0.3911362512985733  0.0161870737369663  0.9999968002784182
  0.2677038566321179  0.0147370819595470  0.9999968087504852
  0.2876514388876415  0.4715060298918081  0.4999968221557459
  0.4091351359162664  0.2871370584881213  0.4999968283923442
  0.1423114183454822 -0.0035401363533867 -0.0000032031446756
  0.0369778009379867  0.1793445205126397 -0.0000032478126691
  0.4969384043158029  0.1642861674764808  0.4999968040941245
  0.4247750858655083  0.2001041379118085 -0.0000031881349044
  0.0347719792732291  0.4570403197063413  0.4999968065624310
  0.3970433348145734  0.4435687363270354  0.4999969565432748
  0.2025184336309395  0.3540121396316062 -0.0000031394630230
  0.2228274499038237  0.0994907872101139  0.4999968403732225
  0.1262256661300277  0.2733285083930455  0.4999968425927436
  0.0898201440064204  0.1012175540979296  0.4999968320370777
  0.2556834103174847  0.2786414180377232  0.4999968269938775
  0.0739058751111406  0.3524511026811086 -0.0000031929108692
  0.2975406391534090  0.6792623514608717 -0.0000031766283800
  0.3814444594692182  0.5368068626046468  0.9999968908377436
  0.2352081605934035  0.5238691290457285 -0.0000031716139829
  0.4761265560920413  0.8796747327822052 -0.0000032099113782
  0.3323447293672490  0.9460847887036158  0.4999968040088719
  0.4176224013014988  0.8123511302274056  0.4999968022918680
  0.0983990877040345  0.5224803123707917 -0.0000031691337080
  0.0255007349959147  0.6725979125903451 -0.0000031944030273
  0.4837952317173883  0.5313617262589373  0.4999962952385147
  0.4324212716564239  0.7037319067659226 -0.0000032020656260
  0.0788354838460348  0.9298883440345068  0.4999968640677628
  0.4586056190313986  0.9883228827642255  0.4999967963194967
  0.2196716314355341  0.8332140319881731 -0.0000031853496385
  0.2266382961384707  0.6263093874090675  0.4999968164275669
  0.1531715170528609  0.7775236890774737  0.4999968184321991
  0.0932522373919836  0.6203975536596770  0.4999968085143826
  0.2874667913950518  0.7817594720574798  0.4999968140023636
  0.0870783372145611  0.8334428590114651 -0.0000032112864771
  0.7717731301256548  0.1385035231242532 -0.0000032023930534
  0.8700911095222468 -0.0114358707502580  0.9999967885580179
  0.7371328595386296 -0.0371153310061488  0.9999967839318218
  0.9297191987927940  0.3418579658929591 -0.0000032242080198
  0.7885423851997732  0.4151531212239282  0.4999967799022069
  0.8677740108991464  0.2657900803383205  0.4999967974439986
  0.6059682081324603 -0.0713229635852621 -0.0000032253274093
  0.9594174163039557  0.0967447332885952  0.4999968694273706
  0.9078563491679214  0.1674019235482823 -0.0000032312536373
  0.5352855530491228  0.3570538640606185  0.4999968178583694
  0.9129662080992992  0.4377931857049116  0.4999967975996514
  0.6756085241047259  0.2800438962217986 -0.0000032133083757
  0.7123920249198950  0.0651219937925147  0.4999967923477831
  0.6208840719541039  0.2082078237113411  0.4999967875946149
  0.5870085767334012  0.0316748280857207  0.4999967890478991
  0.7459142794830692  0.2393283914517627  0.4999967907087089
  0.5493858005807265  0.2474558280850807 -0.0000032005319812
  0.7719481894721079  0.6390726545613435 -0.0000032280724664
  0.8437762947026102  0.4863291162248358  0.9999967891105755
  0.7169120760644863  0.4597889233976488  0.9999967822769670
  0.9488099157933024  0.8277916272057045 -0.0000032100132729
  0.8047938595006956  0.9171648173992366  0.4999967884567290
  0.8875723329167400  0.7641157729370477  0.4999967918937033
  0.5904462859231846  0.4285605236532647 -0.0000032150348714
  0.5277886472047072  0.5855931438346221 -0.0000035771422063
  0.9651876525807075  0.6140290638431211  0.4999967980063893
  0.8966642638338010  0.6618138834354993 -0.0000032092603840
  0.5501359344091011  0.8597168803286592  0.4999967607582377
  0.9354121963849624  0.9285408896195989  0.4999968248909318
  0.6935993980975563  0.7879397981708532 -0.0000032409801943
  0.7192877909789006  0.5687126033284375  0.4999967627252565
  0.6372742717756604  0.7176180250231190  0.4999967435926093
  0.6003749933882170  0.5404738682362253  0.4999966734026566
  0.7619499565862404  0.7437152064931832  0.4999967759975461
  0.5672370748659236  0.7554720149331560 -0.0000032794848044
  0.3459128342304128  0.8446294539703129 -0.0000031949510896
  0.3726198646970761  0.6384244330462121  0.4999968436727701
 -0.0297317694245819  0.5068807106351392 -0.0000032006264472
  0.1597763535672807  0.6741586142029420 -0.0000031873884240
  0.0182569905643452  0.7792282730544332  0.4999968093989062
  0.2080007840172007  0.9311933953013826  0.4999968175084372
  0.8008541654128810  0.3122662964637544 -0.0000032105281607
  0.8367633084608438  0.0905927346730216  0.4999968038761514
  0.5132341800369907  0.0621787048442582 -0.0000031979152439
  0.6414016568372638  0.1042365510812828 -0.0000032109736587
  0.6638485911807881  0.3843584227901570  0.4999967866919083
  0.8200054791968783  0.8140322845318995 -0.0000032178757652
  0.8415792649540860  0.5924309700676983  0.4999967846403758
  0.4643286807154959  0.3940660230206519 -0.0000031531785888
  0.6495627693781394  0.6140022755121770 -0.0000032731951811
  0.5113982223691468  0.6931706832343772  0.4999966580870659
  0.6777418788187975  0.8917529981524582  0.4999967719870301
  0.3309868777114919  0.3579027439585156 -0.0000031610725001
  0.3547688564031595  0.1265892343820652  0.4999968424170859
  0.0091128795901024  0.0035642350378824 -0.0000033331135179
  0.1665550914746736  0.1836384388612643 -0.0000032277627687
 -0.0014567824404406  0.2704004820957640  0.4999968595591058
  0.1638173066028441  0.4444949632762482  0.4999967625502280
