POSCAR file written by OVITO            
   1.00000000000000     
    24.8557290194429221    1.9376698898621139    0.0000006475668947
     1.3794552972666205   17.4409863064928103   -0.0000008261090939
     0.0000002644190779   -0.0000002597318795    5.1667174865297483
   Mg   Nd
    87     6
Direct
  0.2896372636808294  0.1345573040186195 -0.0000030551746736
  0.3760854105568995 -0.0454155101821230 -0.0000030729527127
  0.2542324078785187 -0.0264728550698344  0.9999969775651696
  0.4602979662875662  0.3038710083775671 -0.0000031059769264
  0.3016485979652191  0.4195373118876370  0.4999969757902847
  0.4035863312055031  0.2395472334808379  0.4999969646002953
  0.1291032542615881 -0.0157041639821627 -0.0000029093453760
  0.0356009907871449  0.1916396121063838 -0.0000028588115140
  0.4896484329858852  0.0845536367832284  0.4999968732717229
  0.4183082187323966  0.1389622784067696 -0.0000030882800618
  0.0233645276935495  0.4326460942098381  0.4999970294328752
  0.4317572273623557  0.4077309327205371  0.4999968720258282
  0.1994684599094680  0.3200030049704241 -0.0000029023017707
  0.2191866797565730  0.0663641452628541  0.4999969860589036
  0.1087379804036383  0.2572366686981866  0.4999970298346259
  0.0817482068651604  0.0921656670944450  0.4999970999721338
  0.2505868630043624  0.2364819615142947  0.4999969755770469
  0.0751829046115537  0.3462364836346926 -0.0000029603135374
  0.2856092997535112  0.6377747045822617 -0.0000030089248050
  0.3672953297848495  0.4736319834483864  0.9999969438264733
  0.2381544267085520  0.4797627765546918 -0.0000029705694741
  0.4551995654389238  0.7963177799211852 -0.0000031323860637
  0.3181468843265841  0.8985829939874117  0.4999969400951498
  0.4005085026973009  0.7380584435831951  0.4999968523282653
  0.1062040663003949  0.5053630328663014 -0.0000028799890333
  0.0327482639226653  0.6746158982083023 -0.0000028975632918
  0.4806325791691468  0.5760284460278746  0.4999967983739912
  0.4124062072907082  0.6316893500847356 -0.0000031400376856
  0.0649015848874822  0.9260626005476695  0.4999971494928427
  0.4447513027589630  0.9041941837089298  0.4999968766323220
  0.2078694147923657  0.8074183038866743 -0.0000029842030825
  0.2224881000383765  0.5838031979518660  0.4999970125774081
  0.1442123631331285  0.7546918316783059  0.4999970491115108
  0.0929279044841121  0.5980514513007661  0.4999970457258336
  0.2722600825783945  0.7408766441868251  0.4999969363073488
  0.0803917120499664  0.8310922720862175 -0.0000028422234603
  0.7915453283357310  0.1617192650471740 -0.0000029610326694
  0.8684934473877163 -0.0014814601989504  0.9999971115087147
  0.7442537165413933 -0.0054689118834437  0.9999969819554101
  0.9515549636383962  0.3700653885870262 -0.0000028431648351
  0.8066840895101847  0.2653787066098340  0.4999971129747930
  0.6190491591554482 -0.0133926316307882 -0.0000031485005103
  0.5441051870897778  0.1469159434077154 -0.0000031331773040
  0.8851116497096939  0.1025322068380865  0.4999971272417159
  0.9059881928355775  0.1919014667723574 -0.0000028438124400
  0.5683280077081898  0.4182478313970183  0.4999967716553150
  0.8869763562575907  0.4320739870643251  0.4999972709001697
  0.7156075969697206  0.3235281597816141 -0.0000032607722665
  0.6623550406594922  0.2616495184569214  0.4999967898566278
  0.6159189422702400  0.0934272439040016  0.4999968364294053
  0.5873544811342460  0.3128944808290580 -0.0000031947423646
  0.7789713329491280  0.6720958736018342 -0.0000030359032355
  0.8622272239081954  0.5233448088897038  0.9999972664280563
  0.7453393467388512  0.4975167576027746 -0.0000033404431186
  0.9536286649115715  0.8411387540623657 -0.0000028545207710
  0.8151401214900889  0.9405157760045115  0.4999970582695437
  0.8936050601855681  0.7819277778846121  0.4999971198672836
  0.6239336383001263  0.4792723065343166 -0.0000032603571344
  0.5364546383258846  0.6377064108516791 -0.0000032059215928
  0.9701109716251652  0.6187460217496984  0.4999970286175469
  0.9050246016364627  0.6827188765631453 -0.0000028979244033
  0.5691719484266379  0.9204174875778973  0.4999968318809930
  0.9411249844509838  0.9365695008786523  0.4999971509154613
  0.6979124978311020  0.8278370623451213 -0.0000030889621770
  0.7316181946877450  0.6003113753128928  0.4999967736018477
  0.6480382757986153  0.7594452039236909  0.4999968279649945
  0.6080336099908467  0.5851427610552629  0.4999967762407817
  0.7697192536613306  0.7749864066030577  0.4999969750980497
  0.5751386393889469  0.8150566649808817 -0.0000031752175617
  0.3310836926531530  0.7940714744536295 -0.0000030670627250
  0.3537206794254896  0.5797986409591541  0.4999968934264951
 -0.0162908216611119  0.5252136487025497 -0.0000030111055840
  0.1591197106118569  0.6508189110220880 -0.0000028956935893
  0.0190671194176032  0.7724471520057394  0.4999970996716336
  0.1917696340516772  0.9058411225389507  0.4999970278131283
  0.8351061340683920  0.3521727755155954 -0.0000028015311108
  0.7444130707987362  0.1017716263966750  0.4999969904277006
  0.4939642109030415 -0.0222041207024752 -0.0000031123219454
  0.6681127097314608  0.1546374389600355 -0.0000031520631906
  0.5327719764692225  0.2525578952292025  0.4999968323597241
  0.7024709943007496  0.4274075908518528  0.4999966940153122
  0.8237729090762261  0.8368835497640845 -0.0000029678587566
  0.8504581094719419  0.6199648719656043  0.4999971884586101
  0.4967590718157973  0.4699671076990315 -0.0000032029503558
  0.6578697784864717  0.6533963332761148 -0.0000032112636676
  0.5256738775574964  0.7453691911375030  0.4999968072283654
  0.6918583614481409  0.9330174645668375  0.4999969281459712
  0.3260279774603382  0.3013622956498221 -0.0000030055859223
  0.3538119932551492  0.0732704040105375  0.4999970017205083
 -0.0051685593938943  0.0292031040750440 -0.0000028776515795
  0.1631066265473840  0.1601924004954880 -0.0000029996650199
 -0.0325743984482133  0.2542085939419408  0.4999971487685657
  0.1662011673785559  0.4131831455371968  0.4999967512164450
