POSCAR file written by OVITO            
   1.00000000000000     
    25.4183947615160868    1.6357686185979381    0.0000675298840221
     1.1619755098543194   17.1979568724426883   -0.0000486129040197
     0.0000146350035892   -0.0000154656647006    5.1653532420345369
   Mg   Nd
    85     6
Direct
  0.2887511735768776  0.1452808187879168  0.0000126313266865
  0.3753501059279007 -0.0312148154202480  0.0000061123335026
  0.2549129148305069 -0.0206633353772440  0.0000035708985860
  0.4626031935904124  0.3229649380148990  0.0000689519288433
  0.2987406432210217  0.4312852617371498  0.5000163410912731
  0.4016560585447454  0.2497132873544669  0.5000223053443347
  0.1321786590516205 -0.0238581530192547  0.0000067882209620
  0.0361604689641236  0.1687929786808605  0.0000066322526405
  0.4822799358312692  0.0823089705956576  0.5000127397877402
  0.4209815426069240  0.1493508376709447  0.0000088525152909
  0.0388078494740487  0.4487842588222304  0.5000075671653159
  0.4234308039746321  0.4196088154898933  0.5000262987205844
  0.2009694507232918  0.3241188086070035  0.0000095357309843
  0.2230009593115282  0.0732541693036347  0.5000049968141027
  0.1267862821094909  0.2567860875322770  0.5000082356115549
  0.0896356174930889  0.0857516648615254  0.5000067847887300
  0.2545183556106237  0.2474985379838560  0.5000138458622551
  0.0744459550470939  0.3379513882021317  0.0000093327456559
  0.2825788822462535  0.6475242343991171  0.0000003365510266
  0.3647813704993069  0.4884999238133222  0.0000146169356562
  0.2375672327553096  0.4878313799163303  0.0000110559316299
  0.4522030791911542  0.8099012764161559 -0.0000052439396642
  0.3169935282868227  0.9103595357844971  0.5000027252541109
  0.3962578054975635  0.7520470586344776  0.4999900726780247
  0.1003202052368081  0.5035647549801294  0.0000101325052737
  0.0230344111392863  0.6609832614279678  0.0000084862484849
  0.4718685525703430  0.5866550305322820  0.4999458025625168
  0.4073946757958392  0.6471413524867587 -0.0000219374778758
  0.0695643778930238  0.9163523182442606  0.5000086266056657
  0.4392414582455628  0.9168321644406884  0.5000027806499552
  0.2061192834956732  0.8083994720889854  0.0000022672591250
  0.2217119018440343  0.5937814527582725  0.5000051639540017
  0.1453405082359102  0.7563592025087338  0.5000039775788340
  0.0905286628858232  0.6045464914464908  0.5000078988231416
  0.2717607249190704  0.7508703013202473  0.4999999899937012
  0.0795485414955146  0.8166397767813773  0.0000059795396857
  0.7772189696278802  0.1618621416497253  0.0000853359117760
  0.8686435745690928 -0.0028989820118050  0.0000309632331478
  0.7423891305830425 -0.0087920437681524  0.0000191027942917
  0.9299742316945676  0.3443673451194733  0.0000125988437916
  0.7925088838869372  0.4391719537082445  0.5000387011144996
  0.8720714309791585  0.2786140294491650  0.5000224867335010
  0.6185754127183326 -0.0164232351548932 -0.0000335172443908
  0.9622953128573272  0.1000533296775761  0.5000161111043903
  0.9100096611306955  0.1729072547800461  0.0000245799256044
  0.5495111181656880  0.4101936567048891  0.4998574623833015
  0.9162951030812017  0.4451222979353280  0.5000127795047652
  0.7199792931803315  0.0988192702301764  0.5000528387874517
  0.6381099725228667  0.2561101082265722  0.4988606441114873
  0.6008597021861201  0.0902344043676572  0.4999469071869486
  0.7539661039303786  0.2680337298187688  0.5001126469561558
  0.7712353633911699  0.6594900820879177  0.0000067854410146
  0.8483343948355485  0.5001042688853830  0.0000206634403636
  0.7222334737606668  0.4930268328577707  0.0000228091873334
  0.9452369889709710  0.8270159123882478  0.0000109507313880
  0.8075948507967499  0.9347702200349401  0.5000162477753174
  0.8861203426402312  0.7711884362631585  0.5000103157269237
  0.5291562504910524  0.6513332932152699 -0.0000199251426137
  0.9633404955466592  0.6113672844551984  0.5000074622443917
  0.8958834818261594  0.6652000272050295  0.0000091265342055
  0.5630028222062289  0.9230766736733822  0.4999839681643605
  0.9329922675830157  0.9328430976158379  0.5000159506393782
  0.6956941020502689  0.8210963305050929 -0.0000031838464803
  0.7152429231687899  0.5976228844473290  0.5000081887043862
  0.6397608089710823  0.7604523520304454  0.4999945162869014
  0.5940494081382387  0.5802835498871011  0.4999925822129846
  0.7624478306443691  0.7670288085228955  0.5000050241333923
  0.5732962765955960  0.8160911397004045 -0.0000120755903192
  0.3282138484144876  0.8062319803932297 -0.0000015437047587
  0.3491157053308825  0.5927464170996674  0.4999986571324329
 -0.0261255436791875  0.5003553867050897  0.0000093851261664
  0.1553610308762288  0.6492505901895853  0.0000049658135485
  0.0136678498843674  0.7702703177188776  0.5000085324330864
  0.1940178406889740  0.9110422701749477  0.5000039537945150
  0.8014958826883938  0.3343537574038661  0.0000590106427602
  0.8422615259505452  0.1039239884273517  0.5000561392770290
  0.4945497958171538 -0.0188878513973195  0.0000038540836280
  0.5211713032970974  0.2421950684112502  0.5001567659600152
  0.6718957713869589  0.4231181326804369  0.5000430193043390
  0.8191890690611090  0.8275123524820726  0.0000104213364651
  0.8394738535860392  0.6059514060487459  0.5000127915529756
  0.4925373017850915  0.4878016749680599 -0.0000882407794471
  0.6488383437926885  0.6526876644916083 -0.0000012503949675
  0.5186201654812310  0.7551188780256262  0.4999869648949921
  0.6850410686645159  0.9304591871553878  0.4999927367625666
  0.3289026014246266  0.3133815969651814  0.0000207281032384
  0.3513481183775106  0.0873590715660043  0.5000121689983731
  0.0032428594416108 -0.0023054119683142  0.0000139369726836
  0.1630800088483737  0.1587474039571435  0.0000072982193419
  0.0008852448835177  0.2688103415143485  0.5000070948213590
  0.1678261661448268  0.4223697356712336  0.5000100388675635
