POSCAR file written by OVITO            
   1.00000000000000     
    24.1839906066799486    2.5551304221287436    0.0000093869945021
     1.7398987848997358   17.8752851585239974    0.0000084632978599
     0.0000015639017964    0.0000014137564834    5.1118983146568482
   Mg   Nd
    85     6
Direct
  0.3009056072761196  0.1215048002833025 -0.0000032617616919
  0.3873348580352122 -0.0686810920790013 -0.0000036100225088
  0.2628493663084353 -0.0375268674836233 -0.0000031363115770
  0.4660797744381570  0.2925415832048443 -0.0000038556338135
  0.3002370806886552  0.4107823304474733  0.4999964707606748
  0.4139901236035312  0.2248623996621300  0.4999959156426850
  0.1344848950515026 -0.0189160254850198 -0.0000027834625953
  0.0390271847200057  0.1854083884662555 -0.0000021403706765
  0.5120636731911324  0.0692819215429090  0.4999960379346863
  0.4289750425534075  0.1324579960562783 -0.0000037189895712
  0.0161473424811629  0.4392163739763117  0.4999980629008182
  0.4335106887210817  0.3929122266910739  0.4999961563735327
  0.2009761248957758  0.3109773129568926 -0.0000035610309145
  0.2300289004578073  0.0558041247290664  0.4999968844321000
  0.1146315178200369  0.2505685025744858  0.4999976100191308
  0.0858344679587816  0.0894805703266629  0.4999972254512379
  0.2564095279851383  0.2238675812087813  0.4999965069660811
  0.0731708674693324  0.3417325795772962 -0.0000022823671355
  0.2798949532953866  0.6283995670864911 -0.0000034525523637
  0.3660378727985827  0.4617110276037142  0.9999962963942030
  0.2341813687874468  0.4722863200689151 -0.0000034320839654
  0.4630490088505271  0.7707565889807931 -0.0000041330393268
  0.3320951989637456  0.8829872229761929  0.4999961811457349
  0.4119081096547218  0.7167525206892553  0.4999959841472678
  0.1004567347671501  0.5038960860325586 -0.0000031640263904
  0.0163398752980745  0.6854919965448472 -0.0000027441056786
  0.4862706076380028  0.5529019873163180  0.4999960173273584
  0.4107020354987768  0.6141423170922325 -0.0000037902915695
  0.0687229034334614  0.9271488102510685  0.4999973578972454
  0.4667555635444587  0.8799719928264880  0.4999959992346202
  0.2093918913001749  0.7996179520417664 -0.0000033457262086
  0.2133659576241078  0.5764320204944193  0.4999967690148910
  0.1488703334749563  0.7504746390916089  0.4999968423936043
  0.0698625554385845  0.5953692260019570  0.4999972194262892
  0.2787649641238277  0.7297689893628856  0.4999964499536028
  0.0805259431854203  0.8328868317371100 -0.0000027297544544
  0.7970484809884527  0.1675109738653575  0.0000000578135844
  0.8646365428478754  0.0080474532265220 -0.0000017290814576
  0.7400459750414222  0.0022488403098024  0.0000001166557740
  0.9479183447960879  0.3823968866216068 -0.0000017480865642
  0.8193426125834371  0.2646935146075023  0.4999991979995271
  0.6200482889939677 -0.0162138505989010 -0.0000060944133834
  0.5544064190711413  0.1422467150093656 -0.0000039541914854
  0.9026557381754203  0.1105875969005993  0.4999977312400645
  0.9099636953700304  0.2048748034999039 -0.0000019554368475
  0.5780457911902778  0.4026479076110533  0.4999963943072633
  0.8770918180554707  0.4318864374917450  0.4999984958204879
  0.7176203395014197  0.3214416895769793 -0.0000040468847209
  0.5929774872471358  0.3043616245794922 -0.0000040800610140
  0.7616301145137264  0.6726492509580786 -0.0000018585508076
  0.8533758979281429  0.5326992424949524 -0.0000015797200500
  0.7331527517160696  0.5077432575064967 -0.0000026015840652
  0.9506238608399165  0.8505292278838357 -0.0000020414137848
  0.7732418605602358  0.0815960925753084  0.4999998265634614
  0.9031744857618753  0.7847270296609389  0.4999982661271555
  0.6230686791408102  0.4650958310952633 -0.0000036029125952
  0.5347955119837740  0.6112547167439413 -0.0000043396185890
  0.9090499192949819  0.5996732670454550  0.4999983649620752
  0.8859951740786052  0.6948244217586999 -0.0000015556480002
  0.5954439403684155  0.9027095229849215  0.4999942163190430
  0.9368708778494617  0.9423084016826953  0.4999979729783260
  0.6968314555951639  0.8306938124837840 -0.0000006335230790
  0.7721765787695538  0.5755037773632695  0.4999976587678878
  0.6718341261233731  0.7367277126349359  0.4999984862636702
  0.6311664572649164  0.5626019615239285  0.4999970539531758
  0.7291133357775654  0.9131090331585937  0.4999996400030630
  0.5738719854261685  0.8169632381110917 -0.0000055558742828
  0.3355266941199653  0.7799113207518356 -0.0000036951940364
  0.3529493649636644  0.5651447722896902  0.4999964844698885
 -0.0239060216392422  0.5403522147602885 -0.0000015428013760
  0.1471005088223497  0.6510144335242545 -0.0000031475000089
  0.0241330276273468  0.7786928610118581  0.4999973727954216
  0.2010104825268351  0.8978887369281119  0.4999968915434853
  0.8300811895438674  0.3626873031692570 -0.0000008617944754
  0.6796639819234044  0.2502764818102989  0.4999953527586906
  0.4969954738014140 -0.0256763392979216 -0.0000039625993778
  0.6757357941560693  0.1574991191325094 -0.0000053004101094
  0.5471795423515294  0.2393538680638596  0.4999962298498873
  0.7248551311334990  0.4147123635655202  0.4999968280291783
  0.8195167588247789  0.8524634224155210 -0.0000012703445159
  0.7945298855334344  0.7451140959383724  0.4999982788210076
  0.4973790562617114  0.4516978767923454 -0.0000040350574998
  0.6423775128588348  0.6569222794533365 -0.0000022508903989
  0.5460796381963848  0.7185423189968603  0.4999953239486027
  0.6427301956601524  0.0756963893305050  0.4999947786103087
  0.3304375713068394  0.2910672872955704 -0.0000033930427435
  0.3737048800355681  0.0529005895181948  0.4999951444124074
 -0.0040011478982744  0.0291338722156388 -0.0000022797921500
  0.1691899266808265  0.1529753484822323 -0.0000026211451339
 -0.0250807440937288  0.2640074380913803  0.4999972151939974
  0.1620406561151443  0.4067124175385589  0.4999974404796967
