POSCAR file written by OVITO            
   1.0000000000000000     
    25.4739305311824786    1.7406258436448803    0.0000004346432800
     1.2329882574733746   17.2493067999728851   -0.0000001141199550
    -0.0000002247181007    0.0000000514758227    5.1780315329378315
   Mg   Nd
    88     6
Direct
  0.3049282019156539  0.1687966987945197 -0.0000031559047012
  0.4126742189315873 -0.0068689045964334  0.9999968431062203
  0.2743440990909128  0.0024885825436988  0.9999968450705468
  0.4656245209986366  0.3379962797615150 -0.0000032150043544
  0.2763616368202561  0.4223310068602322  0.4999968314248672
  0.3762624980220216  0.2403934563561043  0.4999968265187771
  0.1484011225717811  0.0002033991783166 -0.0000031612016746
  0.0550588952689591  0.1823764020787653 -0.0000031846033377
  0.4690602164825368  0.0581390077747038  0.4999968470193146
  0.4264926496208253  0.1652964884636943 -0.0000031826539686
  0.0192857685480588  0.4264029824561283  0.4999968096669762
  0.4028401485426808  0.4071927039189383  0.4999968074305995
  0.2098439037252020  0.3479432502431229 -0.0000031649914395
  0.2129146671796140  0.0583617963564376  0.4999968228895925
  0.1198141428272463  0.2462748144360604  0.4999968327549127
  0.0884144090944639  0.0781036814117413  0.4999968311356892
  0.2494220356083499  0.2479329312807229  0.4999968363825874
  0.0830322205995824  0.3485089151647074 -0.0000031799809115
  0.3056721438534176  0.6812252212761590 -0.0000031760052346
  0.3848655003740015  0.5097523476031112  0.9999968076110107
  0.2516763886457998  0.5162528319611058  0.9999968128931912
  0.4837812905292314  0.8312512128567244 -0.0000031605048998
  0.2889819523484671  0.8979911424284800  0.4999968154863904
  0.3669399797532540  0.7328743095803624  0.4999968161605078
  0.1300768796173832  0.5311271247925050 -0.0000031652964115
  0.0537001792423776  0.6899255037845302 -0.0000031796602466
  0.4466753058323962  0.5668231334757483  0.4999968122288699
  0.4325315871142769  0.6721779736653395 -0.0000031751168441
  0.0365660993155579  0.9030949468381773  0.4999968224650846
  0.4176066172565060  0.8927460729479268  0.4999968382190066
  0.2289509132903368  0.8436235989268023 -0.0000031663926479
  0.1916651931323601  0.5854164717735260  0.4999968237546768
  0.1135093473052706  0.7413566145319009  0.4999968151067774
  0.0655659776421265  0.5838680995230628  0.4999968133466305
  0.2404412852492729  0.7386883073811231  0.4999968140605298
  0.0998561646048916  0.8478167162536311 -0.0000031758101396
  0.7997544787349091  0.1805055944967950 -0.0000032002917519
  0.8845489505093947  0.0209692801792462  0.9999968160782348
  0.7620564035817927  0.0100279532292405  0.9999968105502862
  0.9617440656686504  0.3654374934648927 -0.0000031854588892
  0.7732426952341603  0.4046425046069749  0.4999968113401649
  0.8584835741159689  0.2436993234330604  0.4999968161111594
  0.5516831841154668  0.1637338859679936 -0.0000032700166165
  0.9414296768744307  0.0850867540636589  0.4999968252644449
  0.9259936104641955  0.1877959313987139 -0.0000031775012581
  0.5276307805717275  0.3988578817306327  0.4999967914970139
  0.8977518286316423  0.4138079270097050  0.4999968096341768
  0.7171306172490338  0.3422800402587551 -0.0000031981685732
  0.6996320936278627  0.0655574956578792  0.4999968220511071
  0.6130420473229954  0.2294660095881887  0.4999967887296622
  0.5850816826260001  0.0564030008682170  0.4999966847116599
  0.7346787853079739  0.2366004858518640  0.4999968113615225
  0.5911107322426047  0.3369298645810810 -0.0000032070178919
  0.8076308048558860  0.6817312590545846 -0.0000031915536818
  0.8848391028083789  0.5230863779860939  0.9999968080530396
  0.7614030663101012  0.5123641315753324  0.9999968020819688
  0.9749350626869542  0.8484446522593421 -0.0000031810456131
  0.7844901152726775  0.9055776051738548  0.4999968202920222
  0.8631718340536223  0.7453135439132534  0.4999968103606222
  0.6372468117103245  0.5068129543030778 -0.0000031956206426
  0.5598532412552119  0.6707935518242152 -0.0000031743822193
  0.9388928841113060  0.5831278811713808  0.4999968071005913
  0.9300535511577701  0.6892630625849770 -0.0000031956562685
  0.5391935167122385  0.8951884171986512  0.4999968533132134
  0.9124633724037159  0.9161534138884533  0.4999968119006987
  0.7279458843475759  0.8413712993001944 -0.0000031694645666
  0.6937665225989714  0.5667483405014440  0.4999968055646102
  0.6160268789872672  0.7316638641825954  0.4999968303528082
  0.5708146873509808  0.5640962529002022  0.4999968098429927
  0.7394157481841322  0.7355026702161814  0.4999968212923072
  0.6059681008855583  0.8402737731801203 -0.0000031476078286
  0.3560526476666919  0.8441858075293718 -0.0000031680518656
  0.3210634496501425  0.5748659474083443  0.4999968223157570
  0.0105462309919775  0.5277967005344048 -0.0000031892675039
  0.1807416963050882  0.6895071930940374 -0.0000031663163431
 -0.0133638305954097  0.7422063564190844  0.4999968153467775
  0.1583667953314492  0.9002120067974764  0.4999968195941223
  0.8424689758769560  0.3500667244424989 -0.0000032006663884
  0.8182454408469213  0.0740621571722548  0.4999968207403275
  0.6758076746083361  0.1690000389236533 -0.0000031980180367
  0.4939132440574050  0.2303856216549335  0.4999967533335666
  0.6501341829321801  0.3988536652326055  0.4999967988327237
  0.8503929729026418  0.8514404887043157 -0.0000031770774379
  0.8165123921937812  0.5731127393438370  0.4999968053384092
  0.5122022977524187  0.5056351610060982 -0.0000031901133868
  0.6835160568715540  0.6745919974135089 -0.0000031789818730
  0.4922791588376194  0.7275727977900348  0.4999968303267025
  0.6617106037752519  0.8997930390631909  0.4999968546035282
  0.3330414367786536  0.3379246485745590 -0.0000031951462435
  0.3414009633641779  0.0714927519150214  0.4999968085700460
  0.0142323605333613  0.0215313327026573 -0.0000031760218884
  0.1795850557272161  0.1746673495895447 -0.0000031726690196
 -0.0054146456909920  0.2481444796701946  0.4999968499045507
  0.1513964087557459  0.4135583593343768  0.4999968101189169
