POSCAR file written by OVITO            
   1.0000000000000000     
    25.0477420828353416   -1.1394116694823424   -0.0000089786118996
    -0.8078485866471564   18.2220158769354583    0.0000101815771773
    -0.0000016353129515    0.0000026992075165    4.9476789369490994
   Mg   Nd
    88     6
Direct
  0.2929213597898092  0.1754916452154676 -0.0000007453714567
  0.3821110930914358  0.0036509069645519  0.9999978430972764
  0.2550858886999322  0.0047757370291915  0.9999970227228966
  0.4734668757284408  0.3392687405200120 -0.0000031687439463
  0.3021087360703044  0.4404116632077273  0.4999967619534073
  0.3836884343392520  0.2637738827550708  0.4999966147567337
  0.1291664545452872 -0.0118077029347824 -0.0000031576684968
  0.0399823175031266  0.1623214651573855 -0.0000033553879092
  0.4646917390564715  0.0868024295044262  0.4999968860029026
  0.4197962354062835  0.1769907289948850 -0.0000028352354681
  0.0407329802904885  0.4203256104448955  0.4999967675746905
  0.4254521582956235  0.4266660978897748  0.4999968190209839
  0.2101793908047989  0.3317312494694993  0.0000025143963091
  0.2060013752990465  0.0702930220155357  0.4999969015283839
  0.1229528388700824  0.2481502114435325  0.4999968223574822
  0.0807987674776816  0.0782545430006580  0.4999967781518836
  0.2522501591851586  0.2545013393008125  0.4999949853571582
  0.0811406488796343  0.3315282668404486 -0.0000025050045563
  0.2949453950834193  0.6726594379273890 -0.0000031352934820
  0.3792409714885743  0.5190675851788813  0.9999968087435862
  0.2517804623238914  0.5022159068663019  0.9999977133942206
  0.4627105775282068  0.8470978814295784 -0.0000031167872444
  0.2947399085355055  0.9191621224315975  0.4999969004667595
  0.3811035489785578  0.7649424954938415  0.4999967474649827
  0.1228718239185816  0.5029863875940441 -0.0000002688295892
  0.0442987470613180  0.6582909847137102 -0.0000030962489522
  0.4632357171831534  0.5955823562902078  0.4999968087060905
  0.4217075360076418  0.6826606466472185 -0.0000031900225570
  0.0472107898178479  0.9046871279766028  0.4999967322111891
  0.4193186925753547  0.9279150115048129  0.4999966618373507
  0.2123530098507605  0.8335120460948422 -0.0000032096573207
  0.2153703426831600  0.5893043221382565  0.4999968460719698
  0.1274461909054589  0.7455238836970600  0.4999968159522661
  0.0894009922412185  0.5803319382314336  0.4999962323943742
  0.2546777528102798  0.7542786110958946  0.4999968151068485
  0.0841843131263395  0.8260477573024763 -0.0000031894642223
  0.7862586062077183  0.1621487268970605 -0.0000031531320106
  0.8686594592471073 -0.0085783122502379  0.9999967762023788
  0.7479808388639922 -0.0059125572160420  0.9999968145693898
  0.9450178602634762  0.3294709411233589 -0.0000032178522379
  0.7980748450102467  0.4191714617046794  0.4999968241800859
  0.8641561512258517  0.2483668520546067  0.4999967861057367
  0.6286494222373964  0.0074743786429383 -0.0000032144032029
  0.5463667617016892  0.1814547787574406 -0.0000032312381127
  0.9457175607799736  0.0727242770908821  0.4999967809575512
  0.9127568162734158  0.1583806083695318 -0.0000031482863741
  0.5517309565668175  0.4095573532121833  0.4999967883721542
  0.9193474646153997  0.4113834276015266  0.4999968868758555
  0.7055266081482969  0.0867120531382827  0.4999967944886026
  0.6170413349462731  0.2600039246347782  0.4999968540572950
  0.5854443334965906  0.0931288837253174  0.4999968274974824
  0.7404630788086477  0.2572173222158165  0.4999968123870019
  0.7927677774789458  0.6551063079494448 -0.0000031655253171
  0.8718671263269273  0.4883416535696992  0.9999968083213617
  0.7470763211698217  0.4848338380475862  0.9999968193521563
  0.9598571026538816  0.8175416432508682 -0.0000031634349872
  0.7926447891107093  0.9080546779763411  0.4999968063645424
  0.8787241240064849  0.7403982560523673  0.4999968099251509
  0.6240325381704008  0.4852715975550089 -0.0000031877007905
  0.5465316753445477  0.6713745839047339 -0.0000032073855985
  0.9625855110753465  0.5764539131363572  0.4999968310410388
  0.9180356542895516  0.6538306110263918 -0.0000031767855078
  0.5459314646599888  0.9249950787581653  0.4999967976462680
  0.9192186181161883  0.9057287262477421  0.4999968055443561
  0.7108860418019664  0.8251310420479567 -0.0000031990208067
  0.7126453005171248  0.5742674597903350  0.4999968024410059
  0.6283822324897780  0.7478736817000311  0.4999968069460911
  0.5874400672132318  0.5801636858494549  0.4999967799525738
  0.7527488926504879  0.7405319310097761  0.4999967973824845
  0.5876283258028954  0.8387380907680205 -0.0000032188791199
  0.3369662290683038  0.8379169253844218 -0.0000031424588143
  0.3402834668651880  0.6038432372393410  0.4999967170329322
 -0.0042589685845626  0.4941187337224724 -0.0000031621117452
  0.1699234956913288  0.6677079104600354 -0.0000031550010267
  0.0036416460499099  0.7399553836874023  0.4999967710291367
  0.1713939422875783  0.9064714970062112  0.4999968119217987
  0.8124336477825930  0.3284800740720296 -0.0000032773181893
  0.8256662768921966  0.0778421439231496  0.4999967743751205
  0.5073576540459878  0.0105631824301802 -0.0000031536733661
  0.6672946267997306  0.1810443765390626 -0.0000032295421783
  0.4980251712047897  0.2482404122578760  0.4999968035244783
  0.6769948382720916  0.4082820727900277  0.4999967612553342
  0.8361195167325769  0.8230617482135720 -0.0000031871364264
  0.8386022145813036  0.5793546591449459  0.4999967817486322
  0.5029691449315301  0.5052011745972604 -0.0000031769681261
  0.6689194591556014  0.6567141251919153 -0.0000031889424704
  0.5048211178432703  0.7597624023915075  0.4999968005675085
  0.6694899334718142  0.9160721815594300  0.4999968117761456
  0.3359087361744135  0.3421508556793635 -0.0000027436754447
  0.3365075339741198  0.0963707031746882  0.4999937754758360
 -0.0008539079645494 -0.0045461927360393 -0.0000030150057660
  0.1666060799365813  0.1655755801718436 -0.0000031980086770
 -0.0032446130034736  0.2432220543242936  0.4999970659596691
  0.1704519790683223  0.4130759469994099  0.4999881346544933
