POSCAR file written by OVITO            
   1.0000000000000000     
    25.3536345317791394    0.6533330636689912   -0.0000006658962293
     0.5009306539694134   17.1944191174304883   -0.0000007505825144
    -0.0000003221094400   -0.0000003322877919    5.1466122135202417
   Mg   Nd
    88     6
Direct
  0.3016172560756065  0.1518951243278313 -0.0000030689689687
  0.3810661114510942 -0.0126596293401340 -0.0000030473120035
  0.2573498161154865 -0.0143978155737152 -0.0000030363429340
  0.5053665841894518  0.3240247571295581 -0.0000030615643500
  0.2834098048216853  0.4340564948053927  0.4999969296344354
  0.4463826301545220  0.2692514678748093  0.4999969445139350
  0.1320061277798542 -0.0202701822966159 -0.0000030655883001
  0.0527770279223127  0.1734098905712822 -0.0000030482494320
  0.5074683685049050  0.1010729088208518  0.4999969511610373
  0.4440244200570936  0.1627496894657128 -0.0000030875633561
  0.0257519246234195  0.4319212085177797  0.4999969199222927
  0.4001977355238665  0.4400141047883488  0.4999969260037732
  0.2230301900671800  0.3358449448376953 -0.0000030555503437
  0.2373052921246265  0.0805042333991880  0.4999969152276184
  0.1237410736020546  0.2433343648605439  0.4999968553539105
  0.0942891265401409  0.0788664446584053  0.4999969160220983
  0.2616475881367585  0.2532218353637161  0.4999969501597327
  0.0994052835672717  0.3290739333158552 -0.0000029962985490
  0.2698361384260302  0.6643980276528301 -0.0000030605387066
  0.3382950004643422  0.5091529071510315  0.9999969330834807
  0.2162019241100561  0.5058162768396431  0.9999969386563389
  0.4511802218349508  0.8252268116865598 -0.0000030683640343
  0.3212602689308933  0.9305339821792676  0.4999969554611883
  0.3906292774981199  0.7701484144149731  0.4999969420393728
  0.0798579247050280  0.4997095991633373 -0.0000030594846246
  0.0147261135126612  0.6580409338008608 -0.0000030610843165
  0.4577645860781355  0.6016318064500779  0.4999969419036227
  0.3955723452166744  0.6642021532398262 -0.0000030688552938
  0.0677485102254405  0.9141301908849916  0.4999969159765111
  0.4454933399720546  0.9350272152178261  0.4999969577783684
  0.1997848668408528  0.8170361236839888 -0.0000030681821995
  0.2104211305494617  0.6017573095083690  0.4999969280920011
  0.1394339750086488  0.7603108247522542  0.4999969348118994
  0.0809752187739562  0.5961324538304785  0.4999969306733715
  0.2656794603180305  0.7673842219007486  0.4999969425947104
  0.0738812029955679  0.8195126633633519 -0.0000030621057982
  0.8129825569755982  0.1453176795716141 -0.0000030469593799
  0.8769220337278433 -0.0207664929165940  0.9999969338317383
  0.7547410548447641 -0.0207929179900567  0.9999969366921644
  0.9850708332359146  0.3502530028479778 -0.0000030722433960
  0.7755742320611290  0.4169539555691304  0.4999969374168384
  0.8392745426575116  0.2442827536222847  0.4999969577297364
  0.6308599319406794 -0.0144720195061151 -0.0000030517717120
  0.5701904496372442  0.1543634895891215 -0.0000030535962850
  0.9018391596160381  0.0812297487683551  0.4999969261003712
  0.9282998423847413  0.1667024843947635 -0.0000030546821381
  0.5220413760968379  0.4302099674132672  0.4999969474104082
  0.9043003867666068  0.4176600115535252  0.4999969409636933
  0.7568575171869795  0.3131935848351878 -0.0000030612070367
  0.6342168620375775  0.0919591327681700  0.4999969504497018
  0.7040143346078995  0.2524098325438877  0.4999969541236175
  0.6346435106702748  0.3179288467803668 -0.0000030542197661
  0.7643960089094651  0.6502893609982534 -0.0000030594812070
  0.8276944115515419  0.4891173832044959  0.9999969544076402
  0.7046243707724621  0.4835613787883924  0.9999969364750921
  0.9481624139869556  0.8201954582984541 -0.0000030590596370
  0.8191026749822304  0.9211064351591015  0.4999969348791352
  0.8860708682495470  0.7606818507155664  0.4999969337154595
  0.5807401874212972  0.4878361171273481 -0.0000030670275999
  0.5188351736003123  0.6578301709002907 -0.0000030729946435
  0.9556730824472581  0.6022666946681626  0.4999969265173588
  0.8870961147136723  0.6613925315383230 -0.0000030557915882
  0.5709485602734556  0.9298850664433860  0.4999969422056852
  0.9443678970615046  0.9160486199014546  0.4999969358036301
  0.6974009300738303  0.8164576993224045 -0.0000030557075451
  0.7074157959826978  0.5891838950985827  0.4999969495603763
  0.6374438624120305  0.7597751893384594  0.4999969489619595
  0.5820428882834611  0.5953474379661780  0.4999969339898782
  0.7616653881730895  0.7561792066036993  0.4999969509008925
  0.5743266219921956  0.8218440149116565 -0.0000030653881617
  0.3247578114603161  0.8229056630412381 -0.0000030687545001
  0.3345031690746906  0.6098130837113960  0.4999969376918153
 -0.0517038087627216  0.5095296253932299 -0.0000030453920254
  0.1413647903899124  0.6546465200500610 -0.0000030642533870
  0.0132205084408972  0.7591503533792537  0.4999969259926006
  0.1932620871626340  0.9220030307874245  0.4999969305947574
  0.8736424576223307  0.3236137278286398 -0.0000030695520859
  0.7619064104781829  0.0847873315535551  0.4999969591767243
  0.5044630976035368 -0.0056658050481870 -0.0000030600724478
  0.6925214677715458  0.1471565473139808 -0.0000030368150123
  0.5758740501915899  0.2613016571969787  0.4999969438993296
  0.6477549092530267  0.4241168148341939  0.4999969400263406
  0.8208616820153655  0.8171153326104814 -0.0000030670515346
  0.8334459391503691  0.5907513225665552  0.4999969524582296
  0.4577938037188063  0.4938681803621313 -0.0000030694470856
  0.6421502503425175  0.6515884388806296 -0.0000030628099229
  0.5135038639966915  0.7655971737033188  0.4999969424869778
  0.6951758418118731  0.9236751460829382  0.4999969421128613
  0.3568209851697150  0.3189937415732895 -0.0000030394965149
  0.3708025867126363  0.1127425051016058  0.4999970301666841
  0.0034135240136173  0.0083997671502358 -0.0000030849371900
  0.1774475569455256  0.1618981210338787 -0.0000029473939063
 -0.0127385459732772  0.2391241613350178  0.4999968559968063
  0.1560235183572782  0.4198224684821792  0.4999969053506177
