POSCAR file written by OVITO            
   1.00000000000000     
    24.9290502824783502   -0.5776285560496858   -0.0000043409432022
    -0.4088825675167544   17.9903864406453096   -0.0000017565047707
    -0.0000008894620090   -0.0000004916520012    4.9821880353874848
   Mg   Nd
    85     6
Direct
  0.2992497041834025  0.1687064562578130 -0.0000011298408637
  0.3998477004331141  0.0031202744361839  0.9999996881639784
  0.2641102107066707  0.0024693423281223  0.9999978721887220
  0.4752757478338925  0.3349706134691115 -0.0000045863030071
  0.3007866813870331  0.4310505884126301  0.4999976160355436
  0.3980072226718717  0.2563694554496647  0.4999981879286030
  0.1329754918396825 -0.0125000239908842 -0.0000027397112414
  0.0455354693181079  0.1617097596739193 -0.0000030185555354
  0.4700483554817839  0.0696597070508320  0.5000020199161089
  0.4272849667858423  0.1704238761284362 -0.0000011967127168
  0.0399741872264570  0.4180852091742866  0.4999971597938729
  0.4237297072938278  0.4247264646317238  0.4999975074878220
  0.2149328668000558  0.3291272369461485 -0.0000024711165814
  0.2110774867509820  0.0618626309128338  0.4999975820954380
  0.1274702603542825  0.2441125852751024  0.4999972946358963
  0.0843425147387875  0.0746025856129446  0.4999971235736104
  0.2579371232425154  0.2485721372827856  0.4999980371621860
  0.0849424469737771  0.3302536857140279 -0.0000028335541168
  0.2933515120075288  0.6744180461878813 -0.0000028611633837
  0.3776358087702033  0.5148983589144726  0.9999973806068085
  0.2514208980384751  0.5007407931990762  0.9999975243665953
  0.4663240605003134  0.8500280179726344 -0.0000013816464474
  0.2868516395048420  0.9118637321313157  0.4999977630234220
  0.3704442494857778  0.7545898066599391  0.4999977296848044
  0.1234959510776029  0.5039528724185500 -0.0000027876005590
  0.0419980570830351  0.6608997889158555 -0.0000030514008201
  0.4576037943480280  0.5936382887416163  0.4999976089121842
  0.4188696607580603  0.6814868369009244 -0.0000023672512274
  0.0409368635390130  0.9017561176704715  0.4999970653209216
  0.4106090260841519  0.9141562085789854  0.4999989176574248
  0.2128886420901943  0.8360012481860305 -0.0000028515020217
  0.2083040779740342  0.5856259881316620  0.4999973959812071
  0.1198571269812369  0.7406273246423966  0.4999970640778249
  0.0831247794054529  0.5771037398191510  0.4999971623370442
  0.2455701085073727  0.7487133129333523  0.4999972106272453
  0.0831682974662898  0.8276683089636732 -0.0000029760105801
  0.7819390033961799  0.1683450534155406 -0.0000026019782644
  0.8658880493152940 -0.0016993468842373  0.9999967662760859
  0.7375575059193170  0.0037822144659664  0.0000020054742952
  0.9525087807078058  0.3331746865354110 -0.0000031061869867
  0.7978561983553172  0.4273614445506453  0.4999976490657871
  0.8710538057066226  0.2493695947718183  0.4999976741922929
  0.9459913566958645  0.0773751608840726  0.4999970564194149
  0.9156199963325453  0.1628089318944651 -0.0000030770410724
  0.5496118667790055  0.4132870394073075  0.4999991126800946
  0.9188283749049190  0.4119125612729241  0.4999970865215402
  0.7074401963355781  0.1035726141091800  0.5000053325873141
  0.6365516106519179  0.2379633381018341  0.5000095824422616
  0.5889713349759627  0.0793098551150665  0.4998836550147889
  0.7523356183520808  0.2691173951909573  0.4999971813354906
  0.6005644515616618  0.3289506847396363  0.0000031542214177
  0.7883377991944012  0.6608309509748127 -0.0000024698580650
  0.8715349611654706  0.4959472346400254  0.9999971210474904
  0.7450384313068679  0.4858577893446598  0.9999978859578673
  0.9576273396865936  0.8232154937630105 -0.0000032133274427
  0.7869746677442085  0.9150781551912542  0.4999987663140328
  0.8746257652904130  0.7480991689175307  0.4999973277414299
  0.6245428741724950  0.5010832124801436 -0.0000017911897674
  0.5428883443605447  0.6801650055755502 -0.0000022599606728
  0.9570085918962370  0.5773222228695754  0.4999971212259897
  0.9145435813364314  0.6606330670650151 -0.0000028005645212
  0.5359380181020591  0.9237044039165702  0.5000024417956879
  0.9150765107513950  0.9129055000215446  0.4999967035744513
  0.7103747168235747  0.8349558875985597 -0.0000019779966658
  0.7078638701856204  0.5774825308333446  0.4999979759388343
  0.6235888762120957  0.7609120986083742  0.4999992118913065
  0.5829522416452507  0.5906621515587608  0.4999977039765428
  0.7485982362874615  0.7451204157151374  0.4999978268905507
  0.5901396531429954  0.8533696870095315  0.0000009660122833
  0.3390410070246824  0.8437100284410015 -0.0000022174562259
  0.3329596206579212  0.5947670366722765  0.4999972086168877
 -0.0033592135157749  0.4981268563567157 -0.0000030120502838
  0.1680609250742342  0.6708060845238007 -0.0000028381682948
 -0.0023697807327946  0.7392548146763305  0.4999968591889178
  0.1632111221933965  0.9000684189913744  0.4999971147739224
  0.8229850518198183  0.3334020901593982 -0.0000026761659674
  0.8248445823297740  0.0836708729275039  0.4999970750644099
  0.5183324150583007  0.2340800689447195  0.4999894837959253
  0.6736476265944279  0.4060699243044711  0.4999993323582283
  0.8336231760216124  0.8297978839395782 -0.0000023421660793
  0.8340888002610519  0.5880301769165081  0.4999972945213884
  0.5015249884364392  0.5068400977661935 -0.0000020107033261
  0.6654812775566958  0.6695249077001308 -0.0000018020855152
  0.4964930970025321  0.7584343527682663  0.4999975190650200
  0.6626941742691834  0.9328534758841657  0.4999988998792590
  0.3409839023466227  0.3333349923409941 -0.0000023222458626
  0.3429527661069331  0.0882303352792537  0.4999994819887018
 -0.0002410173262145 -0.0013738099619493 -0.0000028256243458
  0.1722899495584612  0.1628593802862814 -0.0000025827222848
  0.0017774834934107  0.2420345115140349  0.4999969797489406
  0.1704076458313578  0.4091487121813405  0.4999974426845232
