POSCAR file written by OVITO            
   1.00000000000000     
    25.0401286204151887    0.9671086804575545   -0.0000040053223728
     0.6833456353311343   17.4521104643772027   -0.0000058212882733
    -0.0000031923396181    0.0000077386883963    5.1221231725561998
   Mg   Nd
    87     6
Direct
  0.2983671451402364  0.1535263049853222 -0.0000061553751336
  0.3798171702798165 -0.0251032159003180 -0.0000039668495250
  0.2585122951555907 -0.0130488680325979 -0.0000042576413180
  0.4863467227066133  0.3173462798312111 -0.0000026525426643
  0.2902953773493503  0.4329105857199247  0.4999968784004117
  0.4267303211552413  0.2519899222255315  0.4999980885920773
  0.1331812476050187 -0.0164692751104537 -0.0000036731603283
  0.0479365577087201  0.1753691395738535 -0.0000043555381289
  0.4974619637886568  0.0929637188984197  0.4999975740838408
  0.4305709526044015  0.1524135795501788 -0.0000036214262828
  0.0292455890092284  0.4298703516975736  0.4999962113106439
  0.4118746872151951  0.4277384262937104  0.4999968526879121
  0.2154574699127960  0.3291866175489489 -0.0000052595928178
  0.2271060448352716  0.0759453412279365  0.5000028032597905
  0.1206983541918526  0.2474861592862626  0.5000037170917838
  0.0908346343641147  0.0829845499518026  0.4999976097079785
  0.2593663026648647  0.2489430140808384  0.4999998908290775
  0.0885020305822238  0.3328321189489155 -0.0000054517714040
  0.2750090275100173  0.6574463616327703 -0.0000032302227306
  0.3494013360324836  0.5051807612957343 -0.0000031545290735
  0.2263639102503835  0.4978443882077891 -0.0000032409177738
  0.4525382973216742  0.8177448234023931 -0.0000029363516586
  0.3186653629545479  0.9172232375346785  0.4999982725649509
  0.3936766470746848  0.7610162322975598  0.4999968878384182
  0.0926659177202157  0.5017798650613263 -0.0000034806515670
  0.0226733309208087  0.6641774998206853 -0.0000035534407265
  0.4671974201412464  0.5950309785971460  0.4999971396807103
  0.4020236987998164  0.6578093446236022 -0.0000029592958770
  0.0677915400989045  0.9179033135467891  0.4999959423239154
  0.4437894511895479  0.9247379385854219  0.4999978528142803
  0.2033987120955326  0.8156479817518437 -0.0000034920982581
  0.2140629982031557  0.5952342332178283  0.4999971332130668
  0.1408874464196114  0.7575234975868737  0.4999974551911255
  0.0847320581704473  0.5947417507475533  0.4999968914719316
  0.2673712044517202  0.7577289235925290  0.4999966137741217
  0.0772615801260939  0.8246796300580481 -0.0000032604374275
  0.8006668812048275  0.1605678694158558 -0.0000035923371927
  0.8734868192506366 -0.0091385838428823 -0.0000041990212908
  0.7518889161974572 -0.0156866651091897 -0.0000039345270312
  0.9688400472013358  0.3526982888199282 -0.0000030745282241
  0.8380050814871226  0.2430874902177641  0.4999958165786480
  0.6273606814712431 -0.0144562428485020 -0.0000034272781924
  0.5583877928512939  0.1494872913870726 -0.0000029972958132
  0.9053004444107405  0.0853215768668244  0.4999957202608338
  0.9203118259874140  0.1756011741899492 -0.0000029170990129
  0.5364579866166543  0.4264317900045956  0.4999978758207642
  0.9067330094154339  0.4243734992489482  0.4999961056698017
  0.7352514888441593  0.3288014431631733 -0.0000030522942482
  0.6271953964766815  0.0895660753957720  0.4999967568931746
  0.6973170530224221  0.2464688545083086  0.4999971152572130
  0.7830129549064662  0.4202260566340414  0.4999966713227054
  0.6138197275303467  0.3179462555554292 -0.0000030690707656
  0.7702662722637164  0.6607221175056593 -0.0000035533833820
  0.8416537734092159  0.5019758382040808 -0.0000035797079742
  0.7167366750987965  0.5062007183716154 -0.0000029801059072
  0.9510234253966446  0.8267717043412154 -0.0000035212270410
  0.8185100696266314  0.9255788001643939  0.4999961865039309
  0.8886999649674503  0.7654510852387907  0.4999965301006399
  0.5944359698448912  0.4961799323840049 -0.0000019584887179
  0.5261778597704775  0.6568079247616827 -0.0000021838036284
  0.9591268751197480  0.6077041119470210  0.4999963088351148
  0.8940672832009527  0.6666345586668120 -0.0000034622433579
  0.5690532054924419  0.9286433247034188  0.4999971385071174
  0.9439772837149129  0.9206373639427423  0.4999961713637699
  0.6995992067097796  0.8221787803121783 -0.0000027098132143
  0.6601975142904092  0.4212961480399622  0.4999970200983317
  0.6401425054333362  0.7649937102180971  0.4999978988790463
  0.5967260399435648  0.5957993941698829  0.4999979876340396
  0.7636457646217889  0.7630354650251880  0.4999966732966331
  0.5752809667099414  0.8230697568612545 -0.0000025495785064
  0.3266936064938389  0.8139025745463232 -0.0000035616240583
  0.3413899719110802  0.6027099619464333  0.4999970457805139
 -0.0350056034093846  0.5168641249475844 -0.0000041173664967
  0.1484576285779927  0.6543156353178199 -0.0000031227634513
  0.0158866535804077  0.7628952076520421  0.4999966450278711
  0.1934493754001986  0.9150858921244286  0.4999963704245201
  0.8548408598599894  0.3304254492577633 -0.0000040842266645
  0.7592714395222909  0.0863044231206074  0.4999960556561657
  0.5008319845771169 -0.0119853414574323 -0.0000022539866644
  0.6813368731154527  0.1490149406040411 -0.0000030321247649
  0.5624487771648420  0.2504845355618768  0.4999972419039380
  0.8240925737989488  0.8242699146152029 -0.0000035060597203
  0.8334594523602155  0.5989936589199719  0.4999966968913926
  0.4706629005718271  0.4941957764170609 -0.0000028049064018
  0.6493426728013308  0.6615762587674148 -0.0000021220267965
  0.5172164056409172  0.7615970722886339  0.4999976567711932
  0.6938446802144614  0.9276151337679041  0.4999965433328482
  0.3463527706488921  0.3194197798040274 -0.0000029187217245
  0.3590948772717443  0.0931792275635459  0.5000078877162740
  0.0014998565381194  0.0138869390698635 -0.0000032291647680
  0.1732691161152666  0.1635068873490895 -0.0000138466048403
 -0.0136210477136213  0.2425369778862412  0.4999974625512447
  0.1615022067190018  0.4151631321268681  0.5000008243086885
