POSCAR file written by OVITO            
   1.00000000000000     
    24.1794627179440660   -2.3974563441125265   -0.0007109469577563
    -1.6811025360994183   18.3666415886212420   -0.0001694017310047
     0.0001390277437031    0.0000499374523908    4.9749217418686618
   Mg   Nd
    85     6
Direct
  0.3093940196214991  0.2014068101254370  0.0055051852395118
  0.3986757687359052  0.0336908785644568  0.0054990874432785
  0.2660282713396708  0.0274052786677668  0.0055076509224908
  0.4905883799692498  0.3602123930780470  0.0054915472184929
  0.3095819194560456  0.4597789729280549  0.5054900924553771
  0.4082259943323929  0.3007418343042158  0.5054947990826878
  0.1322422737574180 -0.0076882346243891  0.0054991015437231
  0.0420918552571668  0.1529180326088081  0.0054913288158305
  0.4860206772922906  0.0997009644664438  0.5055525254769856
  0.4415254344815067  0.2012480719465715  0.0054985322159656
  0.0384078653602526  0.4072325104023668  0.5054962642180549
  0.4357282503441948  0.4725848048099535  0.5054849850997747
  0.2209339824508469  0.3461200235813855  0.0054840052535804
  0.2147167184686061  0.0814432953657322  0.5054970637546653
  0.1285591145963494  0.2482005014322469  0.5054897263756332
  0.0825235261698663  0.0740235998120168  0.5054965882381401
  0.2652112056382810  0.2729542733329260  0.5054908158345767
  0.0849846619277651  0.3264773702364638  0.0054933416238760
  0.3012185313008133  0.6982237581478576  0.0054943974052217
  0.3916008275343216  0.5615317440985328  0.0054911037089389
  0.2594668026864517  0.5223631890273482  0.0054846528719497
  0.4812415069834687  0.9153867282803017  0.0054835212531343
  0.2971380431888366  0.9424541236822928  0.5055057161477028
  0.3824048645427433  0.7886819115974837  0.5055067992457434
  0.1262848780437902  0.5063862921814940  0.0054803225727322
  0.0411982153243496  0.6514017825285113  0.0054932703987187
  0.4714516588145427  0.6452522659909937  0.5054930054073133
  0.4338244570357117  0.7351927039868931  0.0055003033157973
  0.0419555573386528  0.8957785134930036  0.5054930322323371
  0.4214386434037586  0.9507087517725328  0.5054959553943337
  0.2165715589393224  0.8508042758627343  0.0054963336937615
  0.2136918091983094  0.6018723734902028  0.5054815814506278
  0.1240549483834203  0.7455989208287356  0.5054872610216183
  0.0845277799158039  0.5746703612354233  0.5054847570884539
  0.2543063586808265  0.7716824553286128  0.5054974892264649
  0.0831271104201800  0.8243347612440163  0.0054882751336500
  0.7688198826056816  0.1325449452150843  0.0054873750342427
  0.8554028502474454 -0.0417398120506847  0.0054780506638436
  0.7271822966342295 -0.0317942747781878  0.0054828390951285
  0.9477825881884334  0.3094369496379410  0.0054945421863635
  0.7891123913249176  0.3857473710312140  0.5054951255323762
  0.8568620947287963  0.2118021785279844  0.5055055034422248
  0.6139369922600232  0.0685972334193289  0.0054848371737382
  0.9356176912299202  0.0502555379296934  0.5054978936199465
  0.9060048967599538  0.1321413962700579  0.0054988952498263
  0.5500366096745062  0.4227888851744018  0.5054913394322889
  0.9123644641731885  0.3826001224433126  0.5054938105841140
  0.6904322742516142  0.0638920855621209  0.5054713476491418
  0.5944870477570732  0.2627505638690545  0.0054718916700186
  0.6093965364176508  0.1669950837505699  0.5054578647231481
  0.7326562006755759  0.2283901127774568  0.5054946684442154
  0.7775132947147454  0.6052338427322212  0.0054908078719387
  0.8652582434086199  0.4637751204234719  0.0054891652976917
  0.7323273343035765  0.4213431041817226  0.0054883573316543
  0.9536686750563691  0.8005449971297154  0.0054910056161383
  0.7807607711165047  0.8650941162510395  0.5054819694119768
  0.8690636021700492  0.7128404803577362  0.5054914065409329
  0.6178733996468860  0.4521202733308826  0.0054941354568369
  0.5510656228063862  0.6991737499856526  0.0054852686853372
  0.9543459214933697  0.5553574671727858  0.5054943086305071
  0.9097021527278388  0.6325015216630357  0.0054944718802672
  0.5605467234278481  0.9812224816052904  0.5054706268318991
  0.9110512517185372  0.8822169514657295  0.5054891447066908
  0.6990366784923364  0.7968021852118909  0.0054851839367120
  0.6949577560362742  0.5182081798352768  0.5054941360120547
  0.6234031756290627  0.7423391341055318  0.5054836669720223
  0.5822965644446662  0.5829141160723594  0.5054863308298381
  0.7381718493125263  0.6912471613952835  0.5054878889077359
  0.5944514205732783  0.8751467152934025  0.0054846686522298
  0.3470750447189516  0.8669816179350253  0.0055024673262380
  0.3417516883680575  0.6258404617222830  0.5054924212680885
 -0.0053174124851208  0.4818776502677452  0.0054934075731454
  0.1714677439531552  0.6796644482537337  0.0054859902676756
 -0.0033474776141838  0.7247869154977246  0.5054939276565334
  0.1695398435569759  0.9121802479869067  0.5054953769487043
  0.8146402616121934  0.2974847651809194  0.0054947390743601
  0.8081807478227062  0.0389752483048187  0.5054750460701508
  0.5199255074150144  0.2598890548499844  0.5054843498415674
  0.6553810723863964  0.3461748333797601  0.5054824933901831
  0.8243926302706368  0.7825979002727301  0.0054904994720966
  0.8272128892925960  0.5485699147336826  0.5054929646399813
  0.5111292938905182  0.5273202837603013  0.0054860991619084
  0.6563750872981083  0.6264427700687339  0.0054875035798954
  0.5145942383658129  0.8143054628588858  0.5054853731625970
  0.6640715258247024  0.9012502215032768  0.5054894755951445
  0.3535335554142590  0.3747283723883912  0.0054894209431268
  0.3543250488952559  0.1244473857158159  0.5055030797142265
 -0.0055337597943968 -0.0173156415356440  0.0054816605508371
  0.1751445932313539  0.1733867662824575  0.0055060153349075
 -0.0041853816214035  0.2250027278444507  0.5054926722716894
  0.1745529822558756  0.4200062429202109  0.5054868017026037
