POSCAR file written by OVITO            
   1.00000000000000     
    25.0183224084948108    0.9018835228978809    0.0000074311226413
     0.6451624963178310   17.3899914368601749   -0.0000052944831978
     0.0000020681443586   -0.0000016857551418    5.1464686453575270
   Mg   Nd
    87     6
Direct
  0.2923383320865829  0.1412864287309617 -0.0000045055329579
  0.3765084807004248 -0.0371304866344754 -0.0000034888343959
  0.2565611361271835 -0.0235877124654750 -0.0000027271391492
  0.4582428677310398  0.3182929213216810 -0.0000027796480652
  0.2978751388031511  0.4248777948001647  0.4999971002102218
  0.3996470765001390  0.2456046316464112  0.4999971656849294
  0.1326597020288709 -0.0216726518624491 -0.0000031808941837
  0.0457116862591962  0.1607836269956401 -0.0000024691840852
  0.4842530413940980  0.0965894712203102  0.4999968633655184
  0.4170743418129255  0.1471129759309208 -0.0000036809391132
  0.0311727509003124  0.4202382065869427  0.4999969826849463
  0.4245227895595181  0.4187777158427701  0.4999970949175682
  0.2037616748697709  0.3158988797388815 -0.0000022667911332
  0.2167375343199630  0.0547246249555105  0.4999968821587363
  0.1238824814323075  0.2381167763937759  0.4999967853830165
  0.0838522402916320  0.0678161252780957  0.4999968708712970
  0.2536676078193286  0.2354124353774504  0.4999971101266869
  0.0805465288971893  0.3254538245821663 -0.0000026897299587
  0.2862779077066713  0.6401853722884991 -0.0000030334007698
  0.3649917063949485  0.4873266775399002  0.9999969705718782
  0.2378609476216366  0.4799909552574357 -0.0000030093060605
  0.4583746699071303  0.8154508236486677 -0.0000029409384307
  0.3089947935618957  0.8999355514250188  0.4999972410081212
  0.3990762204243742  0.7531106879142079  0.4999970382249984
  0.1091241527918567  0.4937209558782902 -0.0000027762315808
  0.0447094644360292  0.6681313494935804 -0.0000028077401863
  0.4780921821322009  0.5970803206191967  0.4999970436641622
  0.4123033766472396  0.6478785691642954 -0.0000029166718529
  0.0480761792673401  0.8940713590660314  0.4999968889387540
  0.4407754672268281  0.9206232700244863  0.4999969503165294
  0.2133361104023637  0.8073862988915960 -0.0000031239872283
  0.2172565982663467  0.5791515465718418  0.4999971298967494
  0.1276029033171823  0.7336983918719038  0.4999970785376652
  0.0775543331199945  0.5767886352525979  0.4999971691438004
  0.2660045411219299  0.7385525334953690  0.4999969882586582
  0.0933550341673867  0.8232420076201399 -0.0000030749775712
  0.7916445630528138  0.1963728568628512 -0.0000030125624744
  0.8663166229042840  0.0249555118173195 -0.0000031500465537
  0.7454210495044533  0.0235273047183841  0.9999968138976365
  0.9571753302652446  0.3485213919274467 -0.0000028317275074
  0.8650952003630146  0.2370840189063500  0.4999969326966607
  0.6210202847831752  0.0104639596517640 -0.0000029155004694
  0.5427749336091250  0.1648707452704412 -0.0000029526394102
  0.9328057791046321  0.0803081198608343  0.4999967924931460
  0.9218973320701106  0.1782543585812958 -0.0000030061881942
  0.5566506350419310  0.4425432357420558  0.4999969909549503
  0.9082186251470677  0.4046757406649363  0.4999968998496708
  0.7000639550788034  0.3604734416515852 -0.0000030959790120
  0.7604582350085949  0.3160474311643295  0.4999968052247550
  0.6441431950901439  0.2901320857167787  0.4999970788234589
  0.6108989329307964  0.1164277471476164  0.4999970516033920
  0.5784759106373450  0.3392305206859585 -0.0000031333363532
  0.7939354083294287  0.6876086960523398 -0.0000032465221859
  0.8677391408575713  0.5206646201784388 -0.0000032947788146
  0.7395996051023198  0.5299086126101100 -0.0000031447269517
  0.9735672771094421  0.8247447902281767 -0.0000032246568909
  0.8028965538818219  0.9412740054809784  0.4999967371550542
  0.8529775609382597  0.7474414172280536  0.4999968330235564
  0.6148108930268296  0.5131350689117314 -0.0000030957542347
  0.5372929129549704  0.6654211714276745 -0.0000029566533102
  0.9244420057835382  0.5789875420010243  0.4999969610540628
  0.9176599781347443  0.6799832356685124 -0.0000030787511160
  0.5653520803770649  0.9434913810811032  0.4999970153599427
  0.9235365316023713  0.9055779004471654  0.4999967210643754
  0.7176445631045746  0.8518109723793525 -0.0000029839333669
  0.6817862288532125  0.4664427749389340  0.4999967876029706
  0.6530964625467574  0.7927719375358975  0.4999971024630970
  0.6061762957047893  0.6203849670589847  0.4999969194555291
  0.7340361018079852  0.6440968672331918  0.4999969447496661
  0.5841650175805373  0.8383880843077208 -0.0000029672819517
  0.3331838949277725  0.7987705143919696 -0.0000029750358614
  0.3512721064489754  0.5905099876671522  0.4999971132706237
 -0.0109905011874539  0.5189043017325620 -0.0000030625532563
  0.1644078955502846  0.6457023912527612 -0.0000028111566407
 -0.0109080614915614  0.7272952399430315  0.4999970513895097
  0.1758582172823615  0.8921619917171401  0.4999967454677138
  0.8297244405720887  0.3593867466381008 -0.0000031123644378
  0.7436551931924472  0.1284673461931410  0.4999968568869835
  0.4956209363302848 -0.0082134070528586 -0.0000032117499004
  0.6676891337046394  0.1833347874798742 -0.0000030409158265
  0.5242156404106786  0.2689213299385630  0.4999970110304945
  0.8484751533711339  0.8517653391199462 -0.0000031496382589
  0.8031300748078187  0.4890930066410088  0.4999968735507985
  0.4903587485139040  0.4918518144273618 -0.0000030247887241
  0.6644255965201663  0.6857931192336694 -0.0000030661494348
  0.5255046999388635  0.7719965530389544  0.4999970675288000
  0.6851296168559589  0.9636527718637047  0.4999969679656253
  0.3281471110408026  0.3103054908332388 -0.0000031398005323
  0.3480171223683978  0.0770752137992429  0.4999978007390183
 -0.0009200510050140  0.0016061870681297 -0.0000032962660313
  0.1688980937875743  0.1512748259578499 -0.0000026376668461
 -0.0023410285423291  0.2400167345249521  0.4999969062277926
  0.1657447392674251  0.4040083979888650  0.4999970695776552
