POSCAR file written by OVITO            
   1.0000000000000000     
    25.6134410333180149    1.8639588119148380    0.0000007978908938
     1.3277408964299418   17.1309819418127383   -0.0000018338643814
    -0.0000008535381258    0.0000005506187007    5.1863437839032498
   Mg   Nd
    88     6
Direct
  0.2885401494653193  0.1383294015525093 -0.0000029892872812
  0.3722184869538276 -0.0345474640056170 -0.0000029685076355
  0.2522612142084426 -0.0258187007613883  0.9999969485453681
  0.4589640917885084  0.3177591673501463 -0.0000023572164337
  0.3007705345349551  0.4282758980961979  0.4999971356741229
  0.4035644436611761  0.2487575677256769  0.4999972577480143
  0.1303539496625283 -0.0270973787822109 -0.0000031391590699
  0.0360160310998144  0.1678175748040240 -0.0000031564390796
  0.4846987777698479  0.0846894432895815  0.4999970913692039
  0.4202145190733268  0.1463902447700828 -0.0000028731223694
  0.0411384700072352  0.4495917269016468  0.4999968426592288
  0.4254776905295456  0.4188285367083396  0.4999972932903293
  0.2004761347043625  0.3208483654849319 -0.0000029989854694
  0.2260246029051128  0.0718930030414135  0.4999969748285229
  0.1297444893901729  0.2559169194771326  0.4999969064535008
  0.0904273668863183  0.0846482353848115  0.4999968596550772
  0.2555899047433334  0.2446840068584129  0.4999970545776537
  0.0759707104351913  0.3366756780490513 -0.0000031341915339
  0.2828252968442337  0.6453016342098630 -0.0000030308190168
  0.3634241547470263  0.4844051661029948  0.9999971438166115
  0.2385085099227525  0.4848283173542851  0.9999970311457924
  0.4511810561181560  0.8069452906670332 -0.0000031055531638
  0.3162385696255426  0.9099733270311354  0.4999969831349729
  0.3957656789355277  0.7506562053005473  0.4999969212937266
  0.1012788467250690  0.5026044372962910 -0.0000031021645030
  0.0233383775206803  0.6611402815205657 -0.0000031916766402
  0.4730011585116904  0.5877620846277452  0.4999968459020500
  0.4068874991913699  0.6445077098853206 -0.0000030723747535
  0.0688351811784982  0.9157498085109863  0.4999968250539095
  0.4387855522796867  0.9145980290303584  0.4999969674229525
  0.2051697563738405  0.8055942477379848 -0.0000030960647666
  0.2232029247352980  0.5930465609319727  0.4999969667746584
  0.1456687628011857  0.7560115806953409  0.4999968778565954
  0.0913498175590039  0.6053833609479399  0.4999968747342534
  0.2716168680835797  0.7504060225098842  0.4999969480230863
  0.0790910393195976  0.8146175999383871 -0.0000031721977679
  0.7782489153343023  0.1645189825104208 -0.0000034589642159
  0.8680453162309647 -0.0017594654687035  0.9999966493461161
  0.7400021326965283 -0.0051428308561304  0.9999965332619601
  0.9340330605119451  0.3440974926946310 -0.0000032496922535
  0.7973610376232156  0.4415507566640263  0.4999966349476993
  0.8766719855487702  0.2800274969158416  0.4999966844562137
  0.6131996110571590 -0.0120735637419905 -0.0000035557640425
  0.9635470079644521  0.1024482645337438  0.4999967348008637
  0.9095254691088350  0.1737867785656055 -0.0000033043881468
  0.5511969348321348  0.4174995986130832  0.4999966504748850
  0.9194420888542276  0.4464841413734397  0.4999967428888267
  0.6886907117381360  0.3240010019363901 -0.0000035859958939
  0.7226125153049029  0.1022114958556159  0.4999964584259026
  0.6384837271374748  0.2638018528040943  0.4999962076084308
  0.6019823604128988  0.0925700490521917  0.4999962427600173
  0.7580173713937977  0.2724148632327658  0.4999965391074923
  0.7728405025120926  0.6624133487285750 -0.0000033566818965
  0.8520346936943828  0.5021716504201876  0.9999966827869925
  0.7290807237904000  0.4936735798649344 -0.0000033989549436
  0.9450599645208781  0.8284558738970641 -0.0000032667255353
  0.8070505421574455  0.9388343385690843  0.4999966034017678
  0.8860314969874523  0.7744218337968429  0.4999966953263908
  0.6067508087322425  0.4837817667717260 -0.0000033832935683
  0.5293402903924437  0.6479623714267343 -0.0000032296612625
  0.9644746314640422  0.6131880096284867  0.4999967663550881
  0.8969139295908072  0.6672857180699339 -0.0000032832255134
  0.5622495395121128  0.9242127896706562  0.4999966520153780
  0.9325778121188409  0.9353193978395579  0.4999967105033923
  0.6944209839381256  0.8247642417979117 -0.0000033918591256
  0.7184322692803825  0.6018004678573015  0.4999966278206924
  0.6405110089482093  0.7637279872143402  0.4999966438686535
  0.5957869913555615  0.5923937957786352  0.4999966868094055
  0.7628277114487666  0.7707219666721149  0.4999966301893459
  0.5720848279872266  0.8171366825273274 -0.0000033141023531
  0.3271732012427541  0.8039609210475832 -0.0000030517973826
  0.3503612350814139  0.5906302651256958  0.4999970199994229
 -0.0237743651390235  0.5005334400765856 -0.0000032140848989
  0.1559713259342007  0.6468757763714915 -0.0000030885518502
  0.0134723280872415  0.7714315109785035  0.4999967910020875
  0.1926807011099416  0.9117125396354111  0.4999969021212829
  0.8111491770270136  0.3335376072076707 -0.0000033798284339
  0.8444199026775898  0.1066380930245495  0.4999966150025164
  0.4898456902499283 -0.0207720085531088 -0.0000030475579504
  0.6505390009894972  0.1571065471159291 -0.0000037380527256
  0.5232588826965289  0.2476428663532336  0.4999982046631193
  0.6749852509684865  0.4324007323058607  0.4999965432659142
  0.8184017144944969  0.8310918789664444 -0.0000033584176792
  0.8415846481006289  0.6091183068267426  0.4999966818690229
  0.4859514605894753  0.4847163669697503 -0.0000031658886909
  0.6504497747054317  0.6546579446487093 -0.0000033512104342
  0.5186563208650150  0.7558315471434394  0.4999967831591535
  0.6845029236481769  0.9328473670122170  0.4999965367690096
  0.3276383300082670  0.3078781820155705 -0.0000028148627804
  0.3550355291731409  0.0859327438677582  0.4999971019342608
  0.0025551559381005 -0.0025598460429328 -0.0000032324676586
  0.1623899285816550  0.1547309855917965 -0.0000031043788739
  0.0048096494858847  0.2693358213158612  0.4999967857806670
  0.1697656340111876  0.4227088385354623  0.4999969534858868
