POSCAR file written by OVITO            
   1.00000000000000     
    24.8624787683428288    1.8819245845179897   -0.0000000672163015
     1.3389326543579807   17.4350465181590870   -0.0000005767763342
    -0.0000000313056072    0.0000001116357432    5.1599303849830314
   Mg   Nd
    86     6
Direct
  0.2900336173005778  0.1368432581697231 -0.0000029742057072
  0.3756178417490724 -0.0433602361031627 -0.0000029816831666
  0.2538752791287958 -0.0248038363635910  0.9999970105373717
  0.4610425145624090  0.3067226512942438 -0.0000030016360759
  0.3007599476529982  0.4222140421268402  0.4999970103967712
  0.4037925540556430  0.2415346976941061  0.4999970100441482
  0.1286784903622432 -0.0151653766596288 -0.0000029797643359
  0.0363507251600420  0.1909275945237194 -0.0000029825961868
  0.4898644333844110  0.0873638865515381  0.4999970064820584
  0.4186436145718001  0.1415801454845080 -0.0000029825867291
  0.0252798619044497  0.4342008856128615  0.4999969920810437
  0.4302119517868030  0.4102342114184342  0.4999969861798776
  0.1999844764546435  0.3210164930878267 -0.0000030189275881
  0.2198551749902728  0.0677928883905444  0.4999970094617365
  0.1098733341082125  0.2574474442617755  0.4999970053319817
  0.0822284256590281  0.0921704774577415  0.4999970163374821
  0.2512024643913829  0.2382950320158971  0.4999970260933844
  0.0756549298153109  0.3456183571088906 -0.0000029956245024
  0.2841517412713189  0.6402048360125745 -0.0000030034178628
  0.3662461306579909  0.4770931817009513  0.9999969869629058
  0.2372612661105081  0.4818150960494727  0.9999970067010525
  0.4542316525483813  0.7989196606617497 -0.0000030054203107
  0.3175363132989420  0.9009623461256504  0.4999969995874510
  0.3993435418712613  0.7408560981402816  0.4999969769709262
  0.1045209423374633  0.5055864302484553 -0.0000029918268262
  0.0308133934585084  0.6748114599452399 -0.0000029905723836
  0.4790768791287132  0.5784477094679767  0.4999969663148529
  0.4110922398801394  0.6347850106084997 -0.0000030206658441
  0.0642499662140614  0.9262642455368270  0.4999970195365596
  0.4442694229139664  0.9065674304783982  0.4999970023783580
  0.2065579078429035  0.8086085293856513 -0.0000029848569259
  0.2211608355399035  0.5859223529696084  0.4999970087913378
  0.1429648731987222  0.7557330233867394  0.4999970133130631
  0.0911029997038901  0.5983804061071644  0.4999970235102900
  0.2711865560285076  0.7432321552734643  0.4999969945454888
  0.0791072612701076  0.8314243651588812 -0.0000029866741959
  0.7910919485980938  0.1666072563275631 -0.0000029547382566
  0.8678423968406204  0.0010241540191231  0.9999969984331962
  0.7438191811619079 -0.0029683309938400  0.9999969967588753
  0.9522733996606398  0.3695850366122411 -0.0000029635953635
  0.8088450489742074  0.2660057518156508  0.4999970643202494
  0.6187592881394293 -0.0107508583786918 -0.0000030233039080
  0.5445080691918169  0.1496929750151687 -0.0000029874544965
  0.8860138200815637  0.1035683658085615  0.4999970198850446
  0.9065180784198663  0.1930890982993241 -0.0000029953308441
  0.5661858742172178  0.4209101632695059  0.4999969834925680
  0.8927380030552222  0.4353469335446137  0.4999970705447422
  0.7154254155841554  0.3303300089783620 -0.0000029789915590
  0.6641724788700897  0.2662034508302318  0.4999970110257085
  0.6165625582649404  0.0964484350896204  0.4999970064719613
  0.5882326684346799  0.3163427752362178 -0.0000030051471421
  0.7772887845043881  0.6733253023166028 -0.0000030505599664
  0.8595634407537902  0.5236703998857820  0.9999970718039556
  0.7423852501989907  0.4976036942638654  0.9999967937518688
  0.9523944010086378  0.8419406375864661 -0.0000029929209251
  0.8143843168478238  0.9419407792805191  0.4999969913045094
  0.8922473609352477  0.7827458989675340  0.4999969967975432
  0.6226726672258743  0.4823188363763026 -0.0000030240777483
  0.5349552668359568  0.6407552944133093 -0.0000030302146197
  0.9677437371674914  0.6187140727771465  0.4999969796314895
  0.9030766236177447  0.6834741627869877 -0.0000030013421953
  0.5685109674114542  0.9238603009909631  0.4999969932522312
  0.9403928727080342  0.9374140339683009  0.4999970094021861
  0.6971573151959590  0.8297196700213121 -0.0000030312500404
  0.7279597551238673  0.6062908482372622  0.4999968793755607
  0.6463613871786178  0.7636664122399495  0.4999969498935430
  0.6062158208585463  0.5880764647211888  0.4999969608389481
  0.7684226434194319  0.7772906042189492  0.4999969641510222
  0.5740905017210197  0.8182435575535230 -0.0000030284044254
  0.3298621909919862  0.7965339780974232 -0.0000030013896432
  0.3522776930230129  0.5826664631792926  0.4999969870576148
 -0.0186941029957287  0.5257229308970212 -0.0000030238514540
  0.1572687147364289  0.6516097618811270 -0.0000029861909416
  0.0177098346025218  0.7727423317371400  0.4999970068944984
  0.1911220484080407  0.9075628984143126  0.4999970195693606
  0.8356828560844111  0.3537359483117734 -0.0000029178057730
  0.7449856172640592  0.1043232405623120  0.4999970203931674
  0.4933952909735701 -0.0192385169767230 -0.0000029934260285
  0.6683265116267999  0.1583877618266135 -0.0000029961432939
  0.5334569190121355  0.2547834388422385  0.4999969947664156
  0.8228851839702525  0.8386778308186205 -0.0000030181880567
  0.8475263971293610  0.6206602269583400  0.4999970301323077
  0.4955158748568460  0.4730407583605883 -0.0000030272448455
  0.6563678391015219  0.6547642279651156 -0.0000030730596450
  0.5244988464646559  0.7482074430339872  0.4999969739102353
  0.6914034256281552  0.9354812551045972  0.4999969816866481
  0.3266852028824045  0.3042270383944439 -0.0000029819319712
  0.3542041801944692  0.0753365931143756  0.4999969835928950
 -0.0052521515510609  0.0294420769387909 -0.0000029842828062
  0.1635382704398018  0.1607476994656737 -0.0000029842526456
 -0.0306644930297845  0.2547266548564266  0.4999970689691218
  0.1660243866653799  0.4143643818070780  0.4999970748915321
