POSCAR file written by OVITO            
   1.00000000000000     
    24.9271278063596746    0.1952835548535922    0.0000005998319887
     0.1496850672027250   17.6227908928907837   -0.0000034821203614
    -0.0000000310637931    0.0000006851759973    5.1039296617359202
   Mg   Nd
    88     6
Direct
  0.2922450540846657  0.1796916768605032 -0.0000033747517854
  0.3878810919432106  0.0016023200091826 -0.0000033675640197
  0.2640925136393776  0.0081146137901418  0.9999963903840701
  0.4634524616645987  0.3371892260372465 -0.0000031492222651
  0.2927682184486437  0.4601465418611268  0.4999970070787462
  0.3999600344937389  0.2778265030646883  0.4999968553568778
  0.1394163949534110 -0.0092605850632840 -0.0000034171350253
  0.0376707919904508  0.1713412796645106 -0.0000031120570439
  0.4919665968823249  0.1605847299620698  0.4999969389651755
  0.4211100645729978  0.1785628196804752 -0.0000032632579680
  0.0345599079350110  0.4442340764279563  0.4999969248561349
  0.4131956854697530  0.4414592188644613  0.4999974614519776
  0.2039538485962263  0.3434658337140012 -0.0000031607705310
  0.2190648654135401  0.0910829162812304  0.4999966760868981
  0.1239678303791109  0.2627481613784182  0.4999966066378101
  0.0883823227107657  0.0917277189086889  0.4999968460890741
  0.2544856658633107  0.2688917764098808  0.4999968868376360
  0.0744373116254808  0.3424952554370234 -0.0000029811059639
  0.2825008080567641  0.6776809702642700 -0.0000029668905944
  0.3626661689427603  0.5323698673148322  0.9999972625314080
  0.2338926903011335  0.5132720264905761 -0.0000029674214187
  0.4714703613944458  0.8600244538637239 -0.0000032577942610
  0.3252208830265309  0.9362854582061174  0.4999964910915524
  0.4008385917120431  0.7971533051384305  0.4999967804544822
  0.0996558464581147  0.5109506503651770 -0.0000029843376354
  0.0259289449321692  0.6610810734135785 -0.0000031224581997
  0.4601204679860183  0.5959222574089221  0.4999974176452281
  0.4164819336490843  0.6917017785538917 -0.0000030739247342
  0.0742789543370249  0.9207719160165349  0.4999964878678438
  0.4520889478042144 -0.0212377010685092  0.4999967191093868
  0.2107587223186825  0.8304654289619015 -0.0000033063349545
  0.2185185183178690  0.6126989999057140  0.4999971014343527
  0.1468144438977850  0.7676653990633766  0.4999967389651198
  0.0911604869457943  0.6056205131082125  0.4999971689988159
  0.2739365241878937  0.7769509733404386  0.4999967968648465
  0.0829409489548521  0.8269509913739065 -0.0000034609595426
  0.7794346122135332  0.1374564219787095 -0.0000027604509526
  0.8747817460853228 -0.0195811297641620  0.9999969115105377
  0.7494146586602075 -0.0391293652337561  0.9999969234573742
  0.9306728512693816  0.3329632924424746 -0.0000031953671607
  0.7871546852429047  0.4095075454257893  0.4999967841624803
  0.8658840816940540  0.2535971854990252  0.4999968763519487
  0.6253891798284754 -0.0493608699228448 -0.0000030527183344
  0.5539028253055551  0.2232399646469272 -0.0000028390902630
  0.9572077484125935  0.0861548615275549  0.4999966411490953
  0.9101055649243025  0.1594483038298142 -0.0000031544380855
  0.9122185121068377  0.4267748770075630  0.4999972361405388
  0.6775420162768179  0.2860091196225357 -0.0000029705640791
  0.7142219531155678  0.0559051901440873  0.4999969869618988
  0.6218089494019281  0.2177582604748196  0.4999971877472041
  0.5901337922158961  0.0519656927032522  0.4999969682826166
  0.7443678497694167  0.2333674732520730  0.4999971414512976
  0.7726569936135217  0.6281379507161780 -0.0000030810381327
  0.8459587056509454  0.4782027174654748  0.9999969556184894
  0.7198396693589457  0.4562161410419315  0.9999968750322344
  0.9521540829061689  0.8183770710980781 -0.0000032914835455
  0.8089488034195356  0.9034135502006823  0.4999972941311329
  0.8905847508798995  0.7518335248073480  0.4999968378421781
  0.5926003583403666  0.4225547859367005 -0.0000031079320071
  0.5354683143763805  0.6414336865581700 -0.0000036908100650
  0.9645419939771832  0.6008064852894752  0.4999967920989892
  0.8980326869509565  0.6508589602238743 -0.0000029628106577
  0.5582978911332968  0.8914648219443568  0.4999966734607887
  0.9382886801395613  0.9168741741501742  0.4999967373945977
  0.7047894331648080  0.7840411145219882 -0.0000028430085498
  0.7130401165774207  0.5612044018801131  0.4999970510144401
  0.6366917051455706  0.7111559444561453  0.4999968423841506
  0.5800875052044955  0.5393123727992879  0.4999966638980736
  0.7646866959436029  0.7317587741539586  0.4999969003478673
  0.5862004222967597  0.7904136704843604 -0.0000034854369662
  0.3362065761832917  0.8359210062179789 -0.0000033586352004
  0.3441321679622353  0.6325678382538422  0.4999972071461728
 -0.0284972668987995  0.4970103111808011 -0.0000029412757533
  0.1546306792832060  0.6666214125229007 -0.0000030329661933
  0.0182357801734336  0.7651111596376508  0.4999967646916532
  0.2013245793743678  0.9250735719722981  0.4999964412966819
  0.8025838052635603  0.3093257541981165 -0.0000028478668661
  0.8363329579913487  0.0771522021848102  0.4999969671459487
  0.5134027700189351  0.0418412163747359 -0.0000032742623966
  0.6544558330677338  0.1161198583077136 -0.0000030317169108
  0.5335245422149608  0.3577727728000460  0.4999966186966863
  0.6615768619421546  0.3907065176419300  0.4999969657038824
  0.8261325667440748  0.8035808274900422 -0.0000031684205328
  0.8402253358003733  0.5819038183749252  0.4999968163919853
  0.4832235258401255  0.4970311106857758 -0.0000025999946415
  0.6504716153579303  0.6068362658770390 -0.0000031859067106
  0.5136580096020742  0.7407887936282340  0.4999963824364501
  0.6829966543902422  0.8822378474553931  0.4999969168454954
  0.3316227793310466  0.3501031096336877 -0.0000029332561691
  0.3499825523877745  0.1132693369770166  0.4999966798380530
  0.0085123528401204 -0.0015385456549971 -0.0000033494671793
  0.1655666323640567  0.1763142641548744 -0.0000035150557488
 -0.0031101388960515  0.2591709589101477  0.4999969190767496
  0.1637870021697528  0.4306447688035007  0.4999969825439340
