POSCAR file written by OVITO            
   1.00000000000000     
    24.9588431872492222    1.7186767967817487   -0.0001432256430860
     1.2190916893083250   17.3758892437139529    0.0000626917090295
    -0.0000310175255504    0.0000206186994269    5.1588539095485029
   Mg   Nd
    85     6
Direct
  0.2908208861770055  0.1390907280824101 -0.0000045055685594
  0.3768553579154029 -0.0405057340998738 -0.0000006553538892
  0.2554702038065705 -0.0243055584723905  0.9999960185752133
  0.4613574674869798  0.3082944083001464  0.0000001515599581
  0.2990114436925693  0.4245463156376034  0.4999973911694692
  0.4037253256643908  0.2423595640780860  0.5000008419593615
  0.1307675864367133 -0.0186435371871724 -0.0000135739766237
  0.0392751198910864  0.1833060951846584 -0.0000212021300823
  0.4893293065807321  0.0889679481744237  0.4999962528794278
  0.4190601142477907  0.1426455175031286 -0.0000002832139639
  0.0277246624195259  0.4339923519245882  0.4999898238024325
  0.4273082468271510  0.4124495878519736  0.4999980347249796
  0.2006555370867564  0.3212265818979204 -0.0000039726395104
  0.2208741238657167  0.0677086092094944  0.4999944834304635
  0.1140794498335024  0.2545028160859333  0.4999890667430592
  0.0845588647198625  0.0880483064393950  0.4999838831602378
  0.2522134872921485  0.2398181739469853  0.4999958813605095
  0.0751179098809215  0.3412313697300963 -0.0000101791729980
  0.2828369627482019  0.6418764445412805 -0.0000045985040444
  0.3645909482047557  0.4813877017273981  0.9999971519124214
  0.2362004752199928  0.4832707267203514  0.9999943678541205
  0.4543565306362278  0.8026576757311051 -0.0000020307688711
  0.3184608087676695  0.9022790415631587  0.4999970376524602
  0.3992944831252864  0.7441096714734071  0.4999971252381043
  0.1027861760102298  0.5028896114818868 -0.0000102868964329
  0.0294018553535775  0.6705916869323251 -0.0000123789164499
  0.4766412670741365  0.5812455386326735  0.4999951134907132
  0.4097588214089254  0.6385004734256450 -0.0000036346329062
  0.0664415177778082  0.9215336749840619  0.4999845870475229
  0.4446195313152470  0.9106324641939303  0.4999989818065118
  0.2065348676385419  0.8075519415999525 -0.0000080115880473
  0.2202142293393011  0.5870472021447971  0.4999936129289069
  0.1431336773056952  0.7540119206630785  0.4999901711853486
  0.0894393673582180  0.5960604529135197  0.4999886889211861
  0.2712999246632946  0.7445137439143693  0.4999941758616201
  0.0793059546886452  0.8272447040100819 -0.0000122923081605
  0.7923262386077926  0.1737741317324230 -0.0000499838055876
  0.8700809198431276  0.0037234388979402  0.9999773614984233
  0.7457014228988632  0.0024726555510335  0.9999760482769787
  0.9504425708162395  0.3643851215460433 -0.0000264640020616
  0.8330685153617521  0.2559878621560058  0.4999326838139808
  0.6211329025446310 -0.0086995247322126 -0.0000118198535552
  0.5456689538265408  0.1508642038721951 -0.0000105591701650
  0.9022367120051801  0.0974995611864984  0.4999665453817723
  0.9108513450343049  0.1921797647339261 -0.0000299741305418
  0.5616832814968890  0.4236463222395923  0.4999881231355408
  0.8972504517240558  0.4342010972882003  0.4999702772416154
  0.7095569495106129  0.3291533634938277  0.0008084940861051
  0.6172320212981758  0.0975260120865200  0.4999829259217148
  0.5862012254675745  0.3193252894749904 -0.0000200203604666
  0.7765539735151282  0.6724136514849240 -0.0000084983671944
  0.8579518968821837  0.5205927049512863  0.9999684824088719
  0.7399251197441666  0.4980020894904194  0.0000019323070823
  0.9524225721714414  0.8374168146923616 -0.0000188686084077
  0.8152523993665438  0.9449593785534706  0.4999813517141684
  0.8909988545989124  0.7799127402587368  0.4999844716055407
  0.6199561699314804  0.4849214310968903  0.0000049190138564
  0.5335410499759998  0.6445383274133530  0.0000000574538702
  0.9653499585097450  0.6148776301434262  0.4999879032693702
  0.9017046255300515  0.6806733181291659 -0.0000160129558426
  0.5694017200324707  0.9268623150096931  0.4999927812969465
  0.9420246525453962  0.9309472293049504  0.4999766591797474
  0.6983002187419042  0.8311214212949751 -0.0000090568476834
  0.7245646324031095  0.6071244407659749  0.5000025452453275
  0.6456947613795273  0.7658799737780357  0.4999960520894570
  0.6031128545955543  0.5913705223551448  0.5000046451617332
  0.7678401487479661  0.7775717319084703  0.4999907431193252
  0.5749479445042065  0.8203673715822986 -0.0000049170426289
  0.3297804338283011  0.7983725476924565 -0.0000036501676993
  0.3506269301760385  0.5857150924521254  0.4999964108580928
 -0.0206370634616038  0.5213520044166826 -0.0000102947386565
  0.1558515706106908  0.6498996889432693 -0.0000087745051755
  0.0174667405853905  0.7687674067395945  0.4999859097733509
  0.1926811096920441  0.9066335130953628  0.4999899391294730
  0.8311207296917731  0.3529928635015733 -0.0000471976400149
  0.7451875756544732  0.1132367838876886  0.4999562456996861
  0.4954065137175563 -0.0174448737945089 -0.0000040561961112
  0.6685289465112777  0.1649136012199900 -0.0000370821573263
  0.5341553386295830  0.2558620246901374  0.4999926766130842
  0.8234555036914838  0.8398828419932758 -0.0000140621656837
  0.8447846211074419  0.6174401794956652  0.4999773362962650
  0.4929973184094936  0.4764882491608496 -0.0000089174447144
  0.6551988607923518  0.6566655754054376  0.0000001265312234
  0.5237174557290024  0.7522902761791818  0.4999979964412297
  0.6925525526699775  0.9380590345743837  0.4999861393174064
  0.3277112586594408  0.3069493510800991 -0.0000001339959361
  0.3532430799642744  0.0773497524663687  0.4999986331687569
 -0.0017251890891502  0.0218956477301463 -0.0000266011873179
  0.1650419365934785  0.1591611003770131 -0.0000081524515356
 -0.0213590739497180  0.2528551810423691  0.4999701894178019
  0.1656972517142447  0.4141806159698848  0.4999931377329241
