POSCAR file written by OVITO            
   1.0000000000000000     
    25.4977993869323782    1.6765194477709435   -0.0000012632309749
     1.1846888019240174   17.1952782657291223    0.0000008413385827
    -0.0000002398121248    0.0000002164918767    5.1747269820799984
   Mg   Nd
    87     6
Direct
  0.2894089038018122  0.1440332780892658 -0.0000031015246559
  0.3752255078810947 -0.0331057441030888 -0.0000031790747065
  0.2547511403487073 -0.0214070799792828  0.9999966714560530
  0.4615333261348906  0.3186144068809045 -0.0000035229797164
  0.2977538700542613  0.4305315304142215  0.4999967275731322
  0.4022830197861164  0.2465793524488915  0.4999966968450034
  0.1318252065985578 -0.0236035574009340 -0.0000033017680973
  0.0369802899762965  0.1696613513318233 -0.0000033942260996
  0.4830199513980684  0.0817778688297481  0.4999966979216612
  0.4204126441880273  0.1461288929359555 -0.0000032910964234
  0.0398057088989065  0.4494277165078695  0.4999968081604619
  0.4214290895093027  0.4181256326772905  0.4999965496228473
  0.2022624124947871  0.3229709796139124 -0.0000033763662862
  0.2237337187204846  0.0730615974656782  0.4999967279989995
  0.1285765875861571  0.2554364119837549  0.4999969744810734
  0.0898514058926724  0.0859153659050146  0.4999967415464037
  0.2557930551163125  0.2464937346294598  0.4999967785505383
  0.0764856869978292  0.3379416127274943 -0.0000031940493047
  0.2813667871121004  0.6478443379738514 -0.0000033792473618
  0.3614748514198050  0.4891224446124502  0.9999965742334860
  0.2364642780932769  0.4877650008407647  0.9999967568165196
  0.4521996417810413  0.8079772910661503 -0.0000032564946373
  0.3167470034072343  0.9091960316460493  0.4999966869950183
  0.3956263416486345  0.7515589313704418  0.4999967562451375
  0.1014761221423027  0.5041363309616510 -0.0000032131833804
  0.0243815915925878  0.6624149603817213 -0.0000031273074834
  0.4709192983177973  0.5874193182005859  0.4999968254133462
  0.4061144207620846  0.6468111034213505 -0.0000033428307079
  0.0690548595847864  0.9172003922974740  0.4999967135443764
  0.4395777285650123  0.9153656164264161  0.4999967038520650
  0.2057395288436494  0.8090874789498569 -0.0000033459028221
  0.2210375736150294  0.5936304325610812  0.4999967031085194
  0.1449821391312805  0.7571012041971745  0.4999967122361200
  0.0913184026013969  0.6044718193137689  0.4999968508109461
  0.2709379519978799  0.7509615913743496  0.4999967524853987
  0.0794245477472072  0.8183405232062286 -0.0000032962960643
  0.7762212056323464  0.1644769061680908 -0.0000030751650859
  0.8689490863138685 -0.0009975643670845  0.9999967548132745
  0.7422827820473841 -0.0074666567811792  0.9999967349994455
  0.9345491044907570  0.3451299294586675 -0.0000032377769822
  0.7957698105102818  0.4399512210446899  0.4999969118498832
  0.8754090471368112  0.2793605860751401  0.4999966350339519
  0.6182346271961031 -0.0171598309701675 -0.0000031186829931
  0.9618951139160204  0.1021664888597527  0.4999969301168750
  0.9098093114728099  0.1749742724108765 -0.0000032055858725
  0.5479838476716754  0.4130519905714556  0.4999965938358746
  0.9184171835120791  0.4457960368581653  0.4999969259340996
  0.6875554803199683  0.3213053069740326 -0.0000030450623274
  0.7201303001594808  0.1005761066802645  0.4999969910506231
  0.6376443949098345  0.2572844980043567  0.4999972408237814
  0.6015189379734590  0.0905958632505355  0.4999968043435320
  0.7562071448472562  0.2704895372994053  0.4999968171335449
  0.7729802135918440  0.6602323232662903 -0.0000032616557521
  0.8515040179006482  0.5017260110018557  0.9999969561999639
  0.7277559122732917  0.4919110589909836  0.9999969049469956
  0.9465122296466830  0.8287897741137135 -0.0000031912773912
  0.8079388814204861  0.9368128185959208  0.4999967338947420
  0.8870192123782282  0.7732761396518137  0.4999969314469870
  0.6051189510649693  0.4794312781896649 -0.0000031259533117
  0.5290405729729641  0.6477822357415307 -0.0000030336289881
  0.9646017615179870  0.6130368881346744  0.4999968931015351
  0.8973469938049824  0.6673900047920063 -0.0000031774954858
  0.5634740802984104  0.9227124277482324  0.4999969144170766
  0.9333968094153814  0.9344794439397555  0.4999967819915318
  0.6962462287350428  0.8212510832274399 -0.0000031844536120
  0.7176658404725749  0.5994376065738320  0.4999968444096025
  0.6407385436865990  0.7613585027664399  0.4999967541275979
  0.5944208429021337  0.5889291831405759  0.4999970591918889
  0.7635652551117021  0.7683498177988148  0.4999968765722449
  0.5736376942805256  0.8147242066913065 -0.0000032611862143
  0.3278117539869039  0.8053128763303562 -0.0000031985963575
  0.3481880486560537  0.5927517864659100  0.4999965624003705
 -0.0241750406812456  0.5028787669604341 -0.0000031172009604
  0.1550935977968340  0.6507782692918876 -0.0000032024128697
  0.0144624664469210  0.7709429255458996  0.4999967203677786
  0.1934080473897121  0.9117455539543430  0.4999966334253306
  0.8107598201049731  0.3330060692702072 -0.0000033159129559
  0.8420492392420131  0.1066083517531969  0.4999968932103826
  0.4944325000946582 -0.0206673379411799 -0.0000032188810628
  0.5217277410858654  0.2422827811556147  0.4999965254417338
  0.6726358495563285  0.4282601972831732  0.4999968964941058
  0.8199702441921611  0.8295698854017306 -0.0000030771521570
  0.8415089050229697  0.6076112006585959  0.4999967715340949
  0.4837265006098573  0.4868521513701608 -0.0000032140049151
  0.6502889950187036  0.6519834671923530 -0.0000030580885592
  0.5185994780771547  0.7548991928810148  0.4999967662596593
  0.6854572447547482  0.9311922050943552  0.4999968235417805
  0.3297131393539817  0.3121984197555499 -0.0000031657647893
  0.3519080373854453  0.0850356364099932  0.4999964613761002
  0.0031725524126011 -0.0000438819414886 -0.0000031542699243
  0.1636744275882505  0.1580710382005708 -0.0000031517801636
  0.0037031867594923  0.2687602515197385  0.4999966876036894
  0.1679042358135979  0.4209941257264289  0.4999967045491894
