POSCAR file written by OVITO            
   1.0000000000000000     
    25.0396041037664361   -1.0624922811809026   -0.0000005297366969
    -0.7524652307500590   18.2127270335067557    0.0000005386980299
    -0.0000001007128208    0.0000001384938174    4.9499272473836857
   Mg   Nd
    88     6
Direct
  0.2934312006833406  0.1723849564481057 -0.0000033407786143
  0.3809481495757003  0.0029106587686516  0.9999967424937303
  0.2541895204374323  0.0027930718010278  0.9999967968169901
  0.4720747009777870  0.3379643272785116 -0.0000031652096709
  0.3012959685359961  0.4368846531867067  0.4999968297115855
  0.3935034544240550  0.2593286602563207  0.4999968311133156
  0.1282741182043553 -0.0123962246550076 -0.0000032014525615
  0.0409460955619725  0.1623781716653672 -0.0000032101327614
  0.4632998388393093  0.0921814740070703  0.4999968246259710
  0.4213226085383945  0.1737891497526226 -0.0000031976226252
  0.0401210026137973  0.4194504182535992  0.4999968303592438
  0.4234377410847871  0.4252724699255296  0.4999968398573611
  0.2117717554473508  0.3305213196328237 -0.0000032306544952
  0.2052896770449781  0.0680178247355429  0.4999968171520706
  0.1240401800439462  0.2466377398114146  0.4999968239156311
  0.0803100880068801  0.0778794580842289  0.4999968231078292
  0.2541636396829404  0.2522894995967354  0.4999968792352943
  0.0822831192513634  0.3307686618871757 -0.0000031964583622
  0.2938844472529125  0.6712248207999394 -0.0000031818997297
  0.3780139021083426  0.5156287658139534  0.9999968206823734
  0.2513536207672644  0.5008563579899969  0.9999968226200716
  0.4614141421478755  0.8433329346548707 -0.0000031866902647
  0.2932935099986846  0.9171545487435014  0.4999968108457171
  0.3793586099761723  0.7632517042500314  0.4999968178906981
  0.1228493524598868  0.5024663520279088 -0.0000031953559098
  0.0434666406218949  0.6589776549297657 -0.0000031858916628
  0.4617403527377031  0.5922350870417046  0.4999968297006057
  0.4204248507453906  0.6790972209365495 -0.0000031820954716
  0.0457468659081565  0.9050729900271821  0.4999968133990387
  0.4180660561512962  0.9282856555863983  0.4999968405200978
  0.2109838411494363  0.8323414740673326 -0.0000031930128779
  0.2141348981908552  0.5876234663671928  0.4999968263657412
  0.1257216427547630  0.7445370588509868  0.4999968241179661
  0.0880230845587684  0.5794697634497803  0.4999968253513770
  0.2529540327365494  0.7525533480381279  0.4999968023013330
  0.0827925170956421  0.8261016479914349 -0.0000031868132240
  0.7791844504301790  0.1667006171710748 -0.0000032372826153
  0.8676961746601860 -0.0068799076716867  0.9999968001208921
  0.7476782625713341 -0.0006507245008658  0.9999967927077943
  0.9490189233178220  0.3309630068197745 -0.0000031890493689
  0.7972152783844439  0.4233394703098873  0.4999967983364461
  0.8673733944921712  0.2473931368028352  0.4999968004546397
  0.6305358090737814  0.0196090128890962 -0.0000031897667779
  0.5537314982375734  0.1690346639681217 -0.0000031552635095
  0.9430041757715872  0.0740881486276329  0.4999968078964702
  0.9122885596309902  0.1597915903164794 -0.0000031975066752
  0.5497423157733082  0.4218768524694489  0.4999968432770060
  0.9184133771717261  0.4113526787263228  0.4999968144826497
  0.7020095240768821  0.0981332381387958  0.4999967944478037
  0.6319838250586519  0.2326705430771767  0.4999968725084438
  0.5798605627332024  0.0772401295480413  0.4999968153473388
  0.7484993422940065  0.2648749485668928  0.4999967778001114
  0.5988794123391965  0.3322080135764219 -0.0000031457272022
  0.7913070740118733  0.6541760930669637 -0.0000031913964188
  0.8715508796612165  0.4923285855428015  0.9999968122536438
  0.7452454022412205  0.4806012330723270  0.9999968238859855
  0.9585085183474346  0.8195497219823068 -0.0000031934582853
  0.7909885841655447  0.9089408927270228  0.4999967937812176
  0.8776758281834478  0.7428997456609836  0.4999968113377856
  0.6256279102912619  0.5004103731489060 -0.0000031765471110
  0.5457580330269126  0.6748571083918646 -0.0000031685764776
  0.9611607597630212  0.5772577185549261  0.4999968203818578
  0.9170068673041982  0.6563630256742646 -0.0000031859951955
  0.5420213527092865  0.9161320746260857  0.4999968253232238
  0.9180830013895607  0.9074741536281805  0.4999968071851723
  0.7108512149606793  0.8318451381072420 -0.0000031942869899
  0.7109083393044342  0.5723591565165673  0.4999968169578883
  0.6278906186526845  0.7581445208290953  0.4999968174683125
  0.5871634500219561  0.5913547641268094  0.4999968241099320
  0.7514374544641033  0.7402658290894347  0.4999968115709792
  0.5880424982370204  0.8443746572678185 -0.0000031839818746
  0.3356005649743221  0.8369749425843221 -0.0000031865467545
  0.3389084701521168  0.6011165669722170  0.4999968170243394
 -0.0040387602122566  0.4959444436608692 -0.0000031834155317
  0.1689789277512962  0.6670382097385509 -0.0000031775157018
  0.0021231827472842  0.7407510357539987  0.4999968092463372
  0.1697933177356888  0.9049258470794019  0.4999968011605811
  0.8199195729232736  0.3309681035910286 -0.0000032064486282
  0.8214553400669476  0.0802890177078186  0.4999967832532003
  0.5060170595407716  0.0060640067338552 -0.0000031847058868
  0.5151524758827840  0.2541230854960996  0.4999968380435407
  0.6725804138028417  0.4018010875082122  0.4999968409378909
  0.8349058898882078  0.8237782140697650 -0.0000032052122019
  0.8375613314925647  0.5826635602358716  0.4999968062243828
  0.5019185855595241  0.5067356846516148 -0.0000031756662396
  0.6690269864797896  0.6658192140919235 -0.0000031861910990
  0.5024871742522087  0.7545670131299864  0.4999968231447731
  0.6676514296883544  0.9272462329984221  0.4999968030361316
  0.3376015704875280  0.3370736503235542 -0.0000031791320786
  0.3350952278501476  0.0943341797953369  0.4999970656900213
 -0.0018261654716645 -0.0029550374066714 -0.0000031940693857
  0.1675885758788771  0.1645019365628606 -0.0000031742277210
 -0.0019187599533509  0.2423124459416648  0.4999968271970799
  0.1701727484138172  0.4113850379272085  0.4999968792599420
