SCAR file written by OVITO              
   1.0000000000000000     
    24.9290336210354475   -0.3693333544923063   -0.0000045145881509
    -0.2745935352649532   17.2349108540883833   -0.0000082848461501
    -0.0000007760392726   -0.0000004093053923    5.1004389826780656
   Mg   Nd
    85     6
Direct
  0.3041051100139595  0.1666731574450906 -0.0000032932382620
  0.3429933114276309 -0.0017709726174423 -0.0000037590035654
  0.2297551561074425  0.0232077270546376 -0.0000035570713758
  0.5418674525049144  0.3367225394828995 -0.0000031705057733
  0.3439325798574464  0.4155398177392970  0.4999977053790675
  0.4706702826365409  0.2504449296196809  0.4999976405246226
  0.1140766444997308  0.0342248528769701 -0.0000028780911464
  0.0394766258626938  0.1873948613239361 -0.0000007190887023
  0.5167809879559825  0.0644642936019398  0.4999972939560647
  0.4939615442637089  0.1663368077796714 -0.0000036103251626
  0.0137468092599576  0.4139075457671637  0.4999968894969492
  0.4754463109908091  0.4151882228895967  0.4999969794847502
  0.2733597667538923  0.3679827230450134 -0.0000033327814374
  0.2075639202628134  0.1101566264007152  0.4999980471905090
  0.0971324696509086  0.2621512195980987  0.4999971067578337
  0.0607207300454151  0.0941705444381496  0.4999959360821332
  0.2825546601070349  0.2616748830062651  0.4999969985019127
  0.0746649600847181  0.3580337026883760 -0.0000031974805445
  0.3072600383404858  0.6843878872169031 -0.0000032300982227
  0.3619317085664163  0.5111289705788531 -0.0000037256421351
  0.2375745481986018  0.5315379562644253 -0.0000031984503775
  0.5028471573478008  0.8371764288519652 -0.0000032453767660
  0.3080593529133118  0.9232796159673053  0.4999976834382203
  0.3711575595550727  0.7392238961614086  0.4999970606467324
  0.1210529002563679  0.5236222681765206 -0.0000032444096459
  0.0622758117678013  0.6818730021687462 -0.0000032384581723
  0.4250699701968055  0.5735918695963632  0.4999971220315987
  0.4323877420941140  0.6760550262348796 -0.0000030313058915
  0.0582961797096004  0.9187512317386156  0.4999968755405721
  0.4342658563826878  0.9105281242617228  0.4999972453118979
  0.2532217458165698  0.8539578936046459 -0.0000034256881944
  0.1797944915097230  0.6017641481033198  0.4999972015437672
  0.1193790690453395  0.7571533024178427  0.4999971287409079
  0.0617330606308754  0.5772891051273032  0.4999971384733706
  0.2477153042811741  0.7551361845193290  0.4999971035507518
  0.1247567555046392  0.8586036390756608 -0.0000032011115286
  0.7611095037389776  0.1645599521003468 -0.0000031109101639
  0.8316196268379281  0.0014419349585937 -0.0000031489650957
  0.7023414340078078 -0.0038714769165979 -0.0000031318858720
  0.9447532126468721  0.3503581475733758 -0.0000018844905053
  0.7494028811545652  0.3931996369839091  0.4999969500513720
  0.8281866422485328  0.2264632814739465  0.4999966390618057
  0.5774144472576587 -0.0027182445248164 -0.0000031793045687
  0.8922169056836295  0.0631210179618727  0.4999968677614649
  0.8905968142636695  0.1709233567269703 -0.0000018318006802
  0.8818356759442373  0.3964851675806612  0.4999966179476391
  0.6773360575023888  0.3313403808049612 -0.0000031686796013
  0.6404627317587279  0.0551631015883566  0.4999971670283594
  0.7040900621572246  0.2235595518042558  0.4999968027254400
  0.8103808738088881  0.6673854675293416 -0.0000032505440913
  0.8717329676473469  0.5046882051012617 -0.0000032075054771
  0.7439156200709606  0.4996311532716872  0.9999968606633164
  0.0029834816209662  0.8326896546447387 -0.0000030729542140
  0.8159404382433422  0.8944682806001972  0.4999969345366034
  0.8725275083708252  0.7291356827067057  0.4999969206411643
  0.6155224251339703  0.5018444485335942 -0.0000030801061170
  0.5575981822644108  0.6712170658912164 -0.0000032200478455
  0.9354470585548516  0.5655329737281276  0.4999968527561599
  0.9352724500450796  0.6730145013227006 -0.0000030569904557
  0.5651665080791534  0.8941356502573640  0.4999970078911219
  0.9383242312577789  0.8954300065488348  0.4999968688479583
  0.7552706762351261  0.8317262506112849 -0.0000032522750320
  0.6825364843775428  0.5584782620743298  0.4999970180795130
  0.6219061225887974  0.7256162484804225  0.4999970515502412
  0.5536286878724682  0.5640560358108505  0.4999967950814078
  0.7474254015541529  0.7244422347835796  0.4999968400932511
  0.6293284089284695  0.8315606670697580 -0.0000031887671956
  0.3785836426594543  0.8369398224275065 -0.0000031687637146
  0.2994548971277832  0.5799327403603642  0.4999972424339088
 -0.0011371991055845  0.5185450658713150 -0.0000031379884504
  0.1841274592588808  0.7014629254295442 -0.0000032661293691
 -0.0032576453045693  0.7308647841138528  0.4999970319561132
  0.1838721905440585  0.9240274962699486  0.4999971018881670
  0.8147055326774717  0.3332562828943315 -0.0000032347140023
  0.7643549035560822  0.0578439477209207  0.4999968343378889
  0.4568371097110581  0.0019019547933609 -0.0000034396169820
  0.6334150479264773  0.1590227065989095 -0.0000030084324498
  0.5851707692291331  0.2256339047959000  0.4999970246962580
  0.6159762454163267  0.3979494785279986  0.4999968216949863
  0.8804485230449173  0.8373733404346109 -0.0000031219817377
  0.8099699037059956  0.5595436656193498  0.4999968033414172
  0.4871994357391295  0.5080961473968341 -0.0000031518695160
  0.6841142684172554  0.6663903720357842 -0.0000031795344097
  0.4953892899967441  0.7346194509464713  0.4999968575281151
  0.6913924872277978  0.8896612427275711  0.4999970983589935
  0.3999611111114753  0.3126683564025211 -0.0000040048818864
  0.3848336350282717  0.1082204222103970  0.4999973030953797
 -0.0216901918737731  0.0175372851057636 -0.0000030980934556
  0.1776732142802330  0.2267576277373768 -0.0000040810038484
 -0.0344529135576066  0.2315427028416550  0.4999934489955354
  0.1798119079236060  0.4114797754500663  0.4999971576682977
