POSCAR file written by OVITO            
   1.0000000000000000     
    25.3973231136072926    1.0334691775784535   -0.0014961399599469
     0.7490282555533789   17.1641883826790291    0.0010270976609134
     0.0003557597842473   -0.0003363823492094    5.1355855808140314
   Mg   Nd
    87     6
Direct
  0.3038109955500907  0.1717344259216420  0.0052903897494172
  0.4313217309189994  0.0097055445093185  0.0052746439711283
  0.2735138506022537  0.0049695423830386  0.0053084725925808
  0.4632871495331939  0.3618575373966553  0.0052993128392102
  0.2714427280753481  0.4224399398555326  0.5052797299820897
  0.3661109841016940  0.2510905538024703  0.5052807702415003
  0.1436473692002869 -0.0072658385873247  0.0053772028678735
  0.0517133219831195  0.1540806625590470  0.0053866940265244
  0.4857000166971489  0.0790960008469592  0.5052721453256821
  0.4230158716626499  0.1829459955719779  0.0052780552935002
  0.0138854941965796  0.3888642959343733  0.5054116755712252
  0.3996560321199888  0.4225962588453078  0.5052918841726806
  0.2106800116643189  0.3511060909444910  0.0053337010069489
  0.2134157936370249  0.0577364306017405  0.5053349313187750
  0.1073076966873705  0.2245312478853979  0.5053652688554543
  0.0837176523477657  0.0556292598976568  0.5053811366812089
  0.2453990814004088  0.2457815723326194  0.5053330138294623
  0.0786888886124508  0.3239425269092268  0.0053710867336756
  0.3160229253737586  0.6918838753449946  0.0053707619372347
  0.3895058611551012  0.5262692933725054  0.0052846222863406
  0.2607132421193837  0.5215122790420216  0.0052790375184222
  0.5009051973757835  0.8527002291820293  0.0053400234169068
  0.2949942932396181  0.8990169164070072  0.5053560878326752
  0.3755933981277691  0.7462169168594111  0.5053668405730910
  0.1391715451628604  0.5154034780888901  0.0053649770784267
  0.0643997751002172  0.6648282334141951  0.0054073279796623
  0.4498667590161786  0.5857834131852999  0.5053110376749365
  0.4420330492889269  0.6943220166754062  0.0053351174151365
  0.0491042333267922  0.8894719254774639  0.5053832382080035
  0.4333383327648465  0.9078107837385274  0.5053011694142456
  0.2346541331988966  0.8408043940711867  0.0053961649665174
  0.1937847106377656  0.5735577736958859  0.5053362589671706
  0.1209674621680984  0.7276106491839162  0.5053899960615552
  0.0698521691643575  0.5616213972730262  0.5053929930492321
  0.2476755684221650  0.7338824289126675  0.5054024181059622
  0.1094829306219154  0.8313963447660052  0.0053913736707933
  0.7745535736683824  0.1781251651557737  0.0054040073280461
  0.8299422500615619  0.0063225999096481  0.0054449389884572
  0.6942255398951819  0.0162190431932704  0.0054408446987628
  0.9547171668391771  0.3304793803473899  0.0054024606262822
  0.7699603327544313  0.4070759979874400  0.5053761105020760
  0.8379273571514599  0.2314722374558197  0.5054031338001161
  0.5431247399395954  0.1615613335592627  0.0053335655084658
  0.8897210469950457  0.0598337034719263  0.5054139585757791
  0.8978162372919015  0.1652352992111253  0.0054074768186488
  0.5241318525547008  0.4231959537297195  0.5053458429363005
  0.8939223861789575  0.3894738043818614  0.5054246995482359
  0.7078298520521666  0.3532682316162511  0.0053910134095427
  0.6562273942885346  0.1906927554563904  0.0053712216041101
  0.5943713057941914  0.2565065442046705  0.5053823863673734
  0.6193419133056921  0.0784118938644850  0.5053857653591298
  0.7145696084898768  0.2492957779004410  0.5053990394605641
  0.5842722411519813  0.3583727799560861  0.0053853637456596
  0.8178756060209990  0.6735719724567865  0.0054885676897445
  0.8879324458588209  0.4993786137147118  0.0054512832936081
  0.7620804080397812  0.5146786642339648  0.0054051050576916
  0.9928368500876089  0.8154372266072466  0.0053926854452702
  0.8113036954484373  0.9024243759744512  0.5054486798966451
  0.8782363486415854  0.7275950412731486  0.5054748703310127
  0.6381974756092066  0.5244953898494488  0.0053882872171134
  0.5692629575735541  0.6921483737906349  0.0053347812840505
  0.9470037687610948  0.5544909360952880  0.5054400187839350
  0.9416403021281158  0.6592452041641921  0.0054379045374410
  0.5589430250920957  0.9195748655486482  0.5053839809226678
  0.9326641686339072  0.8887170545089190  0.5053900228039143
  0.7522663471509216  0.8475766521270217  0.0054705967926773
  0.7000384218393604  0.5786745677788406  0.5054093497909845
  0.6289279991575976  0.7497878674215057  0.5053683187333116
  0.5754865698734881  0.5853509436295391  0.5053537057260041
  0.7544079538522758  0.7391469518174381  0.5055033615076678
  0.6261423002076830  0.8595853721898297  0.0053878326439720
  0.3657215910996359  0.8648421540115525  0.0053421858427627
  0.3239634981885513  0.5802291072470807  0.5052975296508088
  0.0190672248513298  0.4941709324102189  0.0054154860324879
  0.1896473464082883  0.6793838433758295  0.0053824037764683
 -0.0006279056201232  0.7160859269633204  0.5054105468331902
  0.1696354716761472  0.8896763382434851  0.5054023298782140
  0.8317181981146744  0.3381686406733633  0.0053918212665888
  0.7550215126156431  0.0728433312313795  0.5054255738103191
  0.4791387185744203  0.2586646654567483  0.5053133256189198
  0.6462936842053115  0.4180036509819171  0.5053729797801545
  0.8750512740027245  0.8344704527495603  0.0054278108912756
  0.8246253894261139  0.5657886848018924  0.5054608963553783
  0.5148126017842121  0.5286867982264735  0.0053303175030735
  0.6932010453531965  0.6869276550988902  0.0054211236258142
  0.5035220998676677  0.7473890688789411  0.5053295195118153
  0.6862868662241133  0.9111333419738823  0.5054204124825842
  0.3342627602860374  0.3467172219662348  0.0052650516995473
  0.3489453043724238  0.0719166942562975  0.5052941158116576
 -0.0155565476564602  0.0037939642701268  0.0053913127378850
  0.1781756202603643  0.1721686801601202  0.0053386490216442
 -0.0229256505178364  0.2027748403511441  0.5053962186801262
  0.1430783128390200  0.3949265347878392  0.5053503782386699
