POSCAR file written by OVITO            
   1.00000000000000     
    25.3055587305948002    1.3853958389741345    0.0003085051954353
     0.9862456403819736   17.2945914651011314   -0.0000557972773203
     0.0000638855071716   -0.0000190745504995    5.1471071577682883
   Mg   Nd
    85     6
Direct
  0.2928883157747219  0.1550273220426896 -0.0000244901756831
  0.3916938592998558 -0.0248403708831072  0.9999843936252947
  0.2633146111192728 -0.0132177714439039  0.0000004921330441
  0.4693157389996519  0.3151749673609299 -0.0001468753968376
  0.2933398649160346  0.4348183862831210  0.4999722663100826
  0.3994642677487655  0.2462465584137969  0.4999398734488318
  0.1360756805844236 -0.0174952006068593  0.0000154994021317
  0.0392567792619835  0.1728059766569241  0.0000222717257781
  0.4805196507786447  0.0627855342283933  0.4998512074855626
  0.4237484161095152  0.1504251564037781 -0.0000703715933458
  0.0373524137603457  0.4513542662577698  0.5000149208304784
  0.4156296366743887  0.4182105202417920  0.4999523555331468
  0.2052723939098587  0.3286492857264427 -0.0000131467447580
  0.2222827082932137  0.0764656325498175  0.5000006041483427
  0.1279449119523227  0.2565886412739715  0.5000111843826267
  0.0906634331214277  0.0889493393219837  0.5000168938477325
  0.2565571001538378  0.2508066822012960  0.4999772704264748
  0.0774669734993545  0.3412287050988442  0.0000149195017592
  0.2801023398293751  0.6541802668197949 -0.0000054806230821
  0.3570467291921600  0.4982463392742488  0.9999726317567000
  0.2331416776439569  0.4945503693998130  0.9999850829240262
  0.4558423595516446  0.8060167731525970 -0.0000065305220009
  0.3195453169906064  0.9094817418306352  0.4999973966921873
  0.3957292410147663  0.7500667758068682  0.4999929588952017
  0.1004963079404460  0.5086556975129347  0.0000047023960895
  0.0244429804952732  0.6662625893264500  0.0000179591652373
  0.4680505859329060  0.5836196349590128  0.4999892287990113
  0.4055309668532359  0.6491379241219296 -0.0000104187189456
  0.0714662154990490  0.9206725733489207  0.5000221651631851
  0.4412220330456008  0.9069232646257385  0.4999870869893893
  0.2085221824143625  0.8159077171454266  0.0000061662924504
  0.2183978950196112  0.5971484369951491  0.4999937013394185
  0.1454767575090758  0.7610064396551409  0.5000093779292449
  0.0904262040820050  0.6068750693227825  0.5000088484235427
  0.2712154031775742  0.7540740970023518  0.4999996485116771
  0.0810033539376004  0.8237821641589689  0.0000180188636546
  0.7748735331627198  0.1608770749645286  0.0000717702745582
  0.8700442174604726 -0.0009617655123168  0.0000499826208256
  0.7404549976558729 -0.0110141499893832  0.0001111398917671
  0.9346173858724951  0.3470605955665951  0.0000324437845233
  0.7932452378596448  0.4365354713549681  0.5000343974710445
  0.8740361415620588  0.2790924871136952  0.5000371023695522
  0.9618303526322363  0.1020376653029735  0.5000357933504166
  0.9109743782717955  0.1756848598027270  0.0000394601192927
  0.5421752695458588  0.4012286276045889  0.4999978024209817
  0.9165188155291818  0.4459252974354876  0.5000304377075125
  0.6846111135226951  0.3144973850291201  0.0000433717222276
  0.7197116773376092  0.0950859463125701  0.5001324412134820
  0.6348033808280914  0.2464536432558603  0.5000603273934021
  0.6016273973396287  0.0762335737045859  0.4987280366577874
  0.7539733098055380  0.2662543066575405  0.5000522576577238
  0.7715765631637972  0.6581402937610300  0.0000360904425539
  0.8492538778273258  0.5007049085991017  0.0000333877170524
  0.7245499597224839  0.4868550535338885  0.0000294888274546
  0.9473665796999162  0.8310493315853339  0.0000336883450913
  0.8077824517470956  0.9354705890007528  0.5000780962598698
  0.8871631826832375  0.7738179720941445  0.5000399013014688
  0.6008800920633433  0.4698654856423366  0.0000150985574491
  0.5285030390713774  0.6416145531137101  0.0000003343327574
  0.9637945574887676  0.6149384575823107  0.5000231253847542
  0.8962231113055972  0.6689551782755614  0.0000323474299231
  0.5631747941248613  0.9128534679647228  0.5000349885457507
  0.9346885065480129  0.9349279737048655  0.5000397196610603
  0.6953025351654313  0.8200473866269741  0.0000590340904642
  0.7167295842449908  0.5941845191442693  0.5000294297081018
  0.6412461060425482  0.7549693624088285  0.5000324271409791
  0.5928155186888503  0.5811937103198750  0.5000126141369835
  0.7635343413377840  0.7659090092748703  0.5000471718263141
  0.5756972534774069  0.8054348698826764  0.0000185012287671
  0.3319293420972868  0.8111791704348095 -0.0000023292333348
  0.3447255982694380  0.5963489039620035  0.4999848203438365
 -0.0261956811358113  0.5072170016579166  0.0000235691955680
  0.1542886608386516  0.6577148410602555  0.0000039266443615
  0.0153336370416716  0.7736565221964435  0.5000228926183135
  0.1969142172057812  0.9144283332699857  0.5000089141831260
  0.8088572163350665  0.3309126084127272  0.0000425778874645
  0.8415343042041047  0.1058168990711436  0.5000517828390466
  0.5189102789115069  0.2222781982829750  0.4997950906702859
  0.6688002648774478  0.4204431868171468  0.5000273282852717
  0.8198440707136972  0.8299133804362069  0.0000577395696294
  0.8406598099397460  0.6062373678951455  0.5000334908157599
  0.4791261136446912  0.4850022734115527 -0.0000168416191968
  0.6496814360683874  0.6454288537215109  0.0000251173607710
  0.5189284965798686  0.7481120205028111  0.5000024571648110
  0.6837866392680030  0.9258324047651144  0.5000989503565947
  0.3333204489951982  0.3211387215081889 -0.0000428390173338
  0.3504033288407097  0.0838958823904349  0.4999685549915305
  0.0054670785329491  0.0029981458086084  0.0000323316579730
  0.1666270955137884  0.1644511897006893  0.0000079028477958
  0.0028913123869023  0.2694821565029833  0.5000271439392929
  0.1647012649952749  0.4221748794861541  0.4999941277387901
