POSCAR file written by OVITO            
   1.00000000000000     
    25.3962598135399418    1.2529900826731095    0.0000008593294831
     0.8889034513487675   17.1970118947684938   -0.0000002932549019
     0.0000002253517466   -0.0000002560211422    5.1522273366047191
   Mg   Nd
    87     6
Direct
  0.2895464403263798  0.1489136429224844 -0.0000032599359742
  0.3788900578362865 -0.0264984376856716 -0.0000032235147231
  0.2583399992744543 -0.0189219399518544  0.9999968096916245
  0.4616356942099367  0.3268192662330849 -0.0000031886147447
  0.2957509316240741  0.4335911885432522  0.4999968340460620
  0.3991027276728087  0.2540812008095967  0.4999968235647370
  0.1364211042079056 -0.0274894450810651 -0.0000031795714527
  0.0391721534802786  0.1638246722701760 -0.0000031769161545
  0.4839550400462049  0.0936305225277864  0.4999967932939291
  0.4200746982891553  0.1543399721966376 -0.0000032108474897
  0.0355721245880813  0.4431056101624953  0.4999968516472332
  0.4188220458961695  0.4247922503792949  0.4999968248163553
  0.1999139651538563  0.3253117457701777 -0.0000031650481985
  0.2223942762683291  0.0718716604780855  0.4999968083049751
  0.1225345841709315  0.2530208168825154  0.4999967947288336
  0.0918831026024567  0.0799634987940065  0.4999968231672511
  0.2523459250124768  0.2483151929521257  0.4999968331848014
  0.0729528380833942  0.3337098775396278 -0.0000031612528024
  0.2823525011112195  0.6494177700338568 -0.0000031734554456
  0.3622904846306129  0.4944075056374151  0.9999968302362821
  0.2356444173195390  0.4891437842818999  0.9999968478975765
  0.4545496263364474  0.8180603392969104 -0.0000032029579538
  0.3196656741626881  0.9116898357552139  0.4999968099405941
  0.3978147949383311  0.7577662078382567  0.4999968096091114
  0.0975830735313688  0.4997107188813854 -0.0000031494467584
  0.0217224956165557  0.6528870672467703 -0.0000031526424367
  0.4698814903048683  0.5949624643796028  0.4999967709406136
  0.4071040999514574  0.6532133595953025 -0.0000031915361269
  0.0736718758191919  0.9093542333769361  0.4999968037485758
  0.4420221160495410  0.9252666619718988  0.4999967993131748
  0.2079452428760725  0.8064794510536994 -0.0000031777302893
  0.2212829099264051  0.5935266072176125  0.4999968268057777
  0.1470951087819105  0.7522091613243567  0.4999968287213585
  0.0892307668396204  0.6002751804923731  0.4999968365149370
  0.2732911180906899  0.7516544960096322  0.4999968371299462
  0.0816613228239022  0.8098667711735769 -0.0000031715468548
  0.7944709553681337  0.1736433069365992 -0.0000030258711525
  0.8756888373407281 -0.0109634700854814  0.9999968697549307
  0.7514132348696447 -0.0075954338516834  0.9999967708013247
  0.9180391555000831  0.3365683446686825 -0.0000031519081496
  0.7860884533590584  0.4266266245139280  0.4999970025608132
  0.8655235631117359  0.2674051753369919  0.4999968245378070
  0.6265836647971971 -0.0049170763807594 -0.0000032146005770
  0.5488376988675074  0.1639405882978861 -0.0000031957333695
  0.9668609439020789  0.0865038474085182  0.4999967801628268
  0.9178007564756768  0.1608935919881917 -0.0000031558574442
  0.5427082114319187  0.4288414092317229  0.4999967441672918
  0.9099376333687855  0.4367379998231621  0.4999968552762845
  0.7276182977790584  0.0915250855748645  0.4999967434338290
  0.6348937403844916  0.2657893916809888  0.4999966551028591
  0.6062917300053239  0.0964948774503373  0.4999967764466978
  0.7497983031357940  0.2602628778416889  0.4999970868940912
  0.5901103659217843  0.3468889927769873 -0.0000032734313673
  0.7709788807135179  0.6561738941033395 -0.0000031917881019
  0.8383083797003126  0.4916841118347878  0.9999969224954434
  0.9482649694787352  0.8169120663038785 -0.0000031550149708
  0.8111242892233338  0.9270666295209138  0.4999967793624053
  0.8869468096718408  0.7616287084927567  0.4999968210721994
  0.5292064214848304  0.6607862672625425 -0.0000032291576868
  0.9614878567313107  0.6027640274890635  0.4999968481084530
  0.8948326183215490  0.6552667575541408 -0.0000031386930725
  0.5661659243826800  0.9305566633431216  0.4999967881687285
  0.9370658529897662  0.9211557478804815  0.4999968017678109
  0.6994091806860775  0.8229606148614204 -0.0000032176510905
  0.7149947085889464  0.5910717381456574  0.4999967480383945
  0.6407917366059594  0.7615287440689914  0.4999967538144150
  0.5914595093144870  0.5924643214770142  0.4999967501448053
  0.7629732206462572  0.7618241959857197  0.4999967931610076
  0.5775447636183563  0.8249938214317653 -0.0000032344460022
  0.3298854720033525  0.8091592337891619 -0.0000031830299407
  0.3482627709893539  0.5970299619201254  0.4999968252290177
 -0.0301266144843526  0.4895198342787647 -0.0000031495532770
  0.1549411671529452  0.6457445720135336 -0.0000031603334958
  0.0152417409958001  0.7625610118683381  0.4999968185335848
  0.1975996501209575  0.9073634330842086  0.4999968235568295
  0.7233373227688192  0.3547026373477231 -0.0000029025968175
  0.8477630650885181  0.0936161314179348  0.4999969207363632
  0.4999821050462599 -0.0092584609406388 -0.0000032236941240
  0.6725566659381921  0.1718220288712869 -0.0000033026603429
  0.5194704604786411  0.2594816762343601  0.4999968137824841
  0.6638295128710504  0.4326318906719058  0.4999971594079955
  0.8227404285749259  0.8221599257645399 -0.0000031862742875
  0.8369055016813709  0.5972944093755651  0.4999968510040727
  0.4900529252390701  0.4963363386828989 -0.0000032236034937
  0.6504435477659671  0.6530708944253402 -0.0000032592467701
  0.5193677660921796  0.7647662838775057  0.4999967683911882
  0.6883599917184333  0.9282420360897240  0.4999967826966391
  0.3277189706015608  0.3180066564645743 -0.0000031893917226
  0.3499140428274236  0.0900160384597737  0.4999968804440287
  0.0085355945363152 -0.0118870281466920 -0.0000031079595780
  0.1653984714406761  0.1577795579306988 -0.0000031381067878
 -0.0057710479065881  0.2638218761366775  0.4999968512937140
  0.1650844008285118  0.4207550031050614  0.4999968429688361
