POSCAR file written by OVITO            
   1.00000000000000     
    24.9903773102987117    1.1075409653676642    0.0000179470166662
     0.7720731621454546   17.4754572070925569   -0.0000212264481668
     0.0000034835627076   -0.0000059332206431    5.1114603698688477
   Mg   Nd
    86     6
Direct
  0.2968828835456089  0.1476253200238473 -0.0000061085829463
  0.3775958790591222 -0.0307050674258092 -0.0000043902609801
  0.2566696782138740 -0.0182044797174475 -0.0000007650033241
  0.4832908464328214  0.3147183342404814 -0.0000030838015008
  0.2901334404319321  0.4281848365300700  0.4999971248878914
  0.4283430444963455  0.2467030524080160  0.4999973075982033
  0.1318256154039752 -0.0201054539244992 -0.0000029309728835
  0.0461108998727938  0.1721235718812957 -0.0000018886210382
  0.4991684236831548  0.0899008960683866  0.4999968180673275
  0.4284268977349494  0.1486695575672207 -0.0000045955980134
  0.0280326044719293  0.4301788128591784  0.4999970417954543
  0.4124341524677665  0.4226855914857823  0.4999972263816305
  0.2130185126879596  0.3240857030232223 -0.0000031227715233
  0.2268945136526863  0.0718998662047198  0.4999906842895625
  0.1217142171105371  0.2451810804530040  0.4999874637943827
  0.0893246054183778  0.0808302380870071  0.4999960152470136
  0.2585508671444248  0.2443390267325996  0.4999967624479307
  0.0853300968372377  0.3305972927805639 -0.0000005338062042
  0.2746747914855040  0.6522349799809236 -0.0000029176979569
  0.3501474012463850  0.4990767448601510  0.9999971850023944
  0.2266141198479744  0.4925072091072823 -0.0000029146924873
  0.4510328170338106  0.8128197596642249 -0.0000030077553318
  0.3179706217380581  0.9125743464212429  0.4999970117924627
  0.3938455392965131  0.7552738397886920  0.4999970811094145
  0.0926305131974069  0.4995333193930861 -0.0000029957521861
  0.0216296238890030  0.6632273835178779 -0.0000027331493272
  0.4690391189789047  0.5900421219834340  0.4999970001521907
  0.4017100583174048  0.6520526404749050 -0.0000028247715493
  0.0662412010697210  0.9157409460989214  0.4999969589460687
  0.4430861174368960  0.9193535258409242  0.4999971484053229
  0.2021800263151392  0.8113186623295592 -0.0000026639606708
  0.2135748640548126  0.5909735064154612  0.4999970502556846
  0.1396124227105102  0.7542883585079743  0.4999970571018845
  0.0832407742813200  0.5927373083497519  0.4999969479765103
  0.2667832832027864  0.7529228852971359  0.4999970569470470
  0.0758071924513046  0.8224198034878423 -0.0000027553629528
  0.7922166572126089  0.1785513617990868 -0.0000034615476269
  0.8699018900933386  0.0031930365467121 -0.0000030404206186
  0.7483181417284924 -0.0054540037234771  0.9999969280026488
  0.9643132244738011  0.3526691298112538 -0.0000032740564179
  0.8457145556209114  0.2449332455164470  0.4999968813473762
  0.6220765481201876 -0.0038534310910428 -0.0000031323588576
  0.5525937485551298  0.1516059706950237 -0.0000030339898017
  0.9141095583981369  0.0871942409566802  0.4999972041579538
  0.9177620864828100  0.1795201567696598 -0.0000033319359764
  0.5374029399745139  0.4155619775865039  0.4999970472779031
  0.9052359450262758  0.4259623595073792  0.4999968706583454
  0.7272510384476950  0.3464159968386057 -0.0000043174224205
  0.7084841623406833  0.2534706610182861  0.4999956912661294
  0.7818529324577176  0.4237563445011501  0.4999957779020729
  0.6083458202931635  0.3209466110388517 -0.0000032388097496
  0.7684965288263560  0.6710374547906539 -0.0000027384143847
  0.8411643749233294  0.5073081481869038  0.9999970621144977
  0.7167258779354995  0.5191298769828701  0.9999932097425740
  0.9493317025509501  0.8280267004518755 -0.0000026794217438
  0.8163691795414658  0.9309643359420243  0.4999970461838785
  0.8862576012001834  0.7678465913858157  0.4999971764603036
  0.5956812817570073  0.4972222329382334 -0.0000031815015310
  0.5254042388052944  0.6546921653247562 -0.0000027786333174
  0.9563699384970957  0.6080033748127158  0.4999971629086727
  0.8929021797774942  0.6693779488118692 -0.0000026809280917
  0.5679820792663611  0.9284371982734336  0.4999969841246114
  0.9414602639548096  0.9210738423863055  0.4999970299609082
  0.6964922146389653  0.8331162413039048 -0.0000029427546258
  0.6593867959822137  0.4247335126973976  0.4999959874799919
  0.6401570963323849  0.7708883644430541  0.4999971577455133
  0.5992159235166343  0.5973004032462998  0.4999971016945104
  0.7615896000371019  0.7727819919460390  0.4999970782565499
  0.5725248477135741  0.8256957758373549 -0.0000028025181192
  0.3256747367900928  0.8086206735784248 -0.0000028027208870
  0.3419348825110147  0.5973160343307186  0.4999970771492068
 -0.0351549685255629  0.5168134199011384 -0.0000025813624520
  0.1478330414311744  0.6508423654633293 -0.0000028152462101
  0.0137999686059403  0.7620719087612193  0.4999970978132057
  0.1924692931194047  0.9113763151200548  0.4999970735445552
  0.8485493799646573  0.3364050289478706 -0.0000037352496696
  0.7642622856665140  0.0923529510361664  0.4999967314809613
  0.4972771543251737 -0.0131207218077026 -0.0000030709979593
  0.6734449894527612  0.1553574407487549 -0.0000043302385760
  0.5788947168917609  0.2339331580414597  0.4999968567088646
  0.8227280419446149  0.8314583073348453 -0.0000027931143779
  0.8291704973759048  0.6043077880230051  0.4999972109774301
  0.4724998735630967  0.4899679163130742 -0.0000028514107497
  0.6472399426817650  0.6695097333156521 -0.0000025439605547
  0.5181458313487733  0.7589524429114709  0.4999971452868295
  0.6901099132890346  0.9421081196273798  0.4999970918145490
  0.3445316153288923  0.3137291864854844 -0.0000027340973606
  0.3598816401036200  0.0882161486846483  0.5000042017677098
  0.0005348409916416  0.0120451990146000 -0.0000030119267438
  0.1710558952608531  0.1591979089784460  0.0000136342899033
 -0.0106973409301113  0.2442870494216001  0.4999968187212452
  0.1605501931077935  0.4122223394387447  0.4999969025623268
