POSCAR file written by OVITO            
   1.00000000000000     
    24.7225560548014123    2.1592859659805188   -0.0000019064552521
     1.5284733804802495   17.5425005406052570    0.0000132967537388
    -0.0000007262356329    0.0000039260101293    5.1511767847120664
   Mg   Nd
    86     6
Direct
  0.2903495959446739  0.1340599478368642 -0.0000034412857171
  0.3779723501856977 -0.0477982582434180 -0.0000036042080213
  0.2559462421041832 -0.0251598724563368 -0.0000036439529418
  0.4632660141505298  0.3050719226137369 -0.0000035406664254
  0.3048920187226048  0.4184264885171564  0.4999965835413161
  0.4110661269196296  0.2367920123472295  0.4999970725316484
  0.1311501629306427 -0.0099896972083094 -0.0000024257702303
  0.0318518896753913  0.2023795177962991 -0.0000029899224854
  0.4979005381868937  0.0792088806493784  0.4999970798329921
  0.4209577979222869  0.1369023334846748 -0.0000041754745931
  0.0186584865214375  0.4377777659384113  0.4999965687726179
  0.4367640355055192  0.4072170961871942  0.4999971234406578
  0.2013483327133195  0.3216585244994847 -0.0000081157733002
  0.2196607539599600  0.0683973901863437  0.4999966137272756
  0.1042099811502353  0.2637789388438881  0.4999963896803953
  0.0800272581330708  0.0995959683083519  0.4999964362400663
  0.2510301233868391  0.2363288095687618  0.4999976523721253
  0.0757503275605590  0.3551593558983621 -0.0000028024189040
  0.2896579414777680  0.6368492614563023 -0.0000040828915025
  0.3708151657379232  0.4706684264321680  0.9999959348017246
  0.2414334014861372  0.4795375669901581 -0.0000039746896953
  0.4583222800890820  0.7928771236048747 -0.0000033373010853
  0.3206880222342286  0.8979908515190869  0.4999969720965346
  0.4037768630637891  0.7352309598332304  0.4999971625418370
  0.1115427393866418  0.5119159582539922 -0.0000056540746843
  0.0371194660660977  0.6819055918471233 -0.0000025961769604
  0.4859469337280823  0.5746816415818062  0.4999972229363083
  0.4164044580510040  0.6288519280151877 -0.0000030963771826
  0.0677681884225036  0.9325399535134201  0.4999966205370314
  0.4472864143974302  0.9001885614372942  0.4999973938789356
  0.2111858431603699  0.8101349734453199 -0.0000034877272824
  0.2258837501168204  0.5836181949779206  0.4999963460156799
  0.1475107409580697  0.7585850617978031  0.4999962079202737
  0.0976035108980765  0.6039160040500561  0.4999970481533157
  0.2753911172398839  0.7401577745106105  0.4999966850069533
  0.0832934935645830  0.8376289909680971 -0.0000030583613838
  0.7890510859933670  0.1628095918418682 -0.0000022811314121
  0.8693579058937050  0.0031230813427037  0.9999975432845406
  0.7437438599908800 -0.0021890398303712  0.9999971549885974
  0.9507725796392875  0.3822687894360548 -0.0000036533214177
  0.7102079040928044  0.4275657037814080  0.4999977546631025
  0.8061864302446096  0.2667250370758524  0.4999975991957347
  0.6165459406709135 -0.0082187973137318 -0.0000035393013135
  0.5438740420112991  0.1495021604570338 -0.0000038623170424
  0.8846384557940230  0.1049850621636440  0.4999975262842788
  0.9049141146859048  0.1892454888902043 -0.0000023347460135
  0.5742576017257031  0.4178969928425628  0.4999978323164598
  0.8584934167558875  0.4375683524885008  0.4999974690084644
  0.7179760424336212  0.3257162407577028 -0.0000029071934410
  0.6680121549944432  0.2641437386556719  0.4999980854078176
  0.5907864658771490  0.3137770420132347 -0.0000030466561846
  0.7817266474878849  0.6781593252508347 -0.0000027947545884
  0.8676937359503299  0.5305021832187539  0.9999968627001112
  0.7524923471434747  0.4964314418476021 -0.0000027200113626
  0.9556189805271712  0.8467529957273388 -0.0000024058950584
  0.8155259668374570  0.9457397637893683  0.4999981084674237
  0.8960618962450414  0.7887749534568546  0.4999980015664869
  0.6291406321022199  0.4786414179963355 -0.0000031593923598
  0.5412405060158304  0.6349753254450980 -0.0000033219932777
  0.9754569929943604  0.6274330282200279  0.4999977964735062
  0.9084611714789607  0.6891214329303920 -0.0000028629087139
  0.5719197907894896  0.9122137761460775  0.4999974663241914
  0.9432409381749884  0.9418660111639763  0.4999970685239979
  0.6978832167657196  0.8336431806588929 -0.0000029098379963
  0.7408300387618693  0.5978026295721772  0.4999974962285529
  0.6536135590523526  0.7557959017443530  0.4999975434126943
  0.6148164034998629  0.5833842456535899  0.4999981538835029
  0.7719453324042651  0.7814236508516560  0.4999977834317489
  0.5778613843035347  0.8105683240953625 -0.0000031497326309
  0.3343522356548157  0.7927265527951609 -0.0000033062309344
  0.3579827690442369  0.5774001006372369  0.4999968867538865
 -0.0103215019263507  0.5330446420038719 -0.0000032089892727
  0.1636684268533900  0.6559750919456132 -0.0000025449536307
  0.0222810527097099  0.7798812756977080  0.4999971870459873
  0.1947305355853954  0.9075770539906708  0.4999962771434620
  0.8388828476787666  0.3477101906832497 -0.0000026757424544
  0.7424304448183884  0.1033523058075982  0.4999980528387253
  0.4949268441695575 -0.0251933979118266 -0.0000039344639307
  0.6651327353943371  0.1538138934264672 -0.0000030686587380
  0.5408553580349397  0.2497964779920280  0.4999971298770262
  0.8249348136026675  0.8419684214996535 -0.0000030793214057
  0.8561247383887042  0.6277622222366890  0.4999979585438346
  0.5008968210326891  0.4687021226661253 -0.0000030356276613
  0.6633384362784623  0.6502763201989019 -0.0000026584739086
  0.5300794559035925  0.7418432184931029  0.4999976857557825
  0.6897836387011157  0.9428498084581913  0.4999970817136534
  0.3288186982482390  0.2985496853973787 -0.0000031150811360
  0.3579160958392835  0.0717871065107734  0.4999964440281231
 -0.0033874571936678  0.0337496313982663 -0.0000032112453885
  0.1618978015424222  0.1655730981133696 -0.0000033830977631
 -0.0433119288103968  0.2649923194049063  0.4999970403140101
  0.1673336693592798  0.4150779201813519  0.5000022289479418
