POSCAR file written by OVITO            
   1.00000000000000     
    25.3389301610002953    0.7073021480747681   -0.0000005772554587
     0.5311140801785406   17.1987921207799346    0.0000006071108761
     0.0000000024145189    0.0000000199695959    5.1355976539708914
   Mg   Nd
    87     6
Direct
  0.3009309538551316  0.1504420000556841 -0.0000030483898643
  0.3797540576057500 -0.0147161914023467  0.9999969484698954
  0.2561350403835695 -0.0153082322337083  0.9999969690634583
  0.5061608837353447  0.3223974992445646 -0.0000030277466479
  0.2833475355490991  0.4319851638402366  0.4999969722830540
  0.4488255591959932  0.2657861213165350  0.4999969749850397
  0.1308075466606760 -0.0199930647477515 -0.0000030323243700
  0.0516245008992823  0.1748308867237094 -0.0000030255807459
  0.5093075478046940  0.0975066529958619  0.4999969760594868
  0.4441610830392385  0.1601700023898806 -0.0000030450394893
  0.0253182213318001  0.4328206010386551  0.4999969689582999
  0.4005388546423878  0.4371972531131352  0.4999969727378240
  0.2235284069364484  0.3355848979151347 -0.0000030261386133
  0.2366632626708071  0.0798837989563278  0.4999969696702442
  0.1224022881226670  0.2437443953020972  0.4999969854262625
  0.0932297983464804  0.0795074637859991  0.4999969739358811
  0.2615010792814279  0.2521079925641257  0.4999969668106077
  0.0995791029374212  0.3297356314604238 -0.0000030307779884
  0.2691385851064555  0.6632379086049061 -0.0000030252752912
  0.3378787670777791  0.5066270713851038  0.9999969717332604
  0.2155170604297408  0.5054483644363454  0.9999969647243830
  0.4499525875919826  0.8231007601085435 -0.0000030341217741
  0.3201642460262363  0.9290926708015121  0.4999969789208462
  0.3894439584813721  0.7679604576415686  0.4999969742448110
  0.0791603452031474  0.5003714442575139 -0.0000030343580192
  0.0138105928753581  0.6592267659248440 -0.0000030345298263
  0.4574207822391682  0.5989739490697350  0.4999969661822657
  0.3948235460884073  0.6619205812398740 -0.0000030269045821
  0.0663969470201834  0.9151418465597873  0.4999969665998696
  0.4442271254645910  0.9327178635631277  0.4999969776812985
  0.1987269822451445  0.8165039099474358 -0.0000030260961807
  0.2095661512628550  0.6014456763319932  0.4999969673244596
  0.1381933826144471  0.7607157021365516  0.4999969661535797
  0.0802130785644206  0.5968105746089579  0.4999969717848246
  0.2646016669603596  0.7661460443243020  0.4999969712564718
  0.0725788635396147  0.8204263425036025 -0.0000030324855009
  0.8090269162481613  0.1484474947636010 -0.0000030335944282
  0.8747312202678778 -0.0172518332596231  0.9999969757138659
  0.7519926833882911 -0.0183295208377279  0.9999969642418849
  0.9853048034518291  0.3515664764534321 -0.0000030162794874
  0.7757276994665645  0.4193129770306698  0.4999969652713982
  0.8396310186422405  0.2465677804610933  0.4999969608509741
  0.6277641427986376 -0.0097957981129199 -0.0000030277093596
  0.5687557058007440  0.1535706969481042 -0.0000030343020288
  0.8997945354944180  0.0825788930637626  0.4999969641585654
  0.9256706954442893  0.1677809788407104 -0.0000030133386992
  0.5229745465358053  0.4269751528317195  0.4999969735259621
  0.9040338259723153  0.4199271871909033  0.4999969709780793
  0.7566660149815758  0.3174360270618213 -0.0000030253061265
  0.7067042735235839  0.2537353148692295  0.4999969685651153
  0.6346350940996345  0.3170797548931525 -0.0000030306617559
  0.7632359452063644  0.6528623054325039 -0.0000030342026066
  0.8269705698436728  0.4917583737734224  0.9999969711452948
  0.7039652420985141  0.4858140574799826  0.9999969685924288
  0.9466949913786457  0.8225084621808572 -0.0000030344372295
  0.8173252740023168  0.9238739781418638  0.4999969690462868
  0.8847009038498643  0.7629201674020013  0.4999969715284461
  0.5804657334969647  0.4867630524403298 -0.0000030364779713
  0.5179904573476526  0.6558650600985551 -0.0000030253004814
  0.9547054236144049  0.6038411310750734  0.4999969725845373
  0.8861864941799263  0.6634285216697885 -0.0000030311687790
  0.5694844803682212  0.9267810782731343  0.4999969698585552
  0.9428599529507665  0.9181330366016265  0.4999969675970237
  0.6951905653283862  0.8191388552472619 -0.0000030333490605
  0.7069243398815727  0.5906219770292558  0.4999969680246534
  0.6365544363786767  0.7597833244349780  0.4999969689542632
  0.5819151200829652  0.5940170634155145  0.4999969693754925
  0.7600828006109906  0.7587758519491757  0.4999969726667348
  0.5727984247003426  0.8206938567374131 -0.0000030305799134
  0.3236952098302235  0.8214208964981335 -0.0000030351012416
  0.3336380804252478  0.6076047262494204  0.4999969680679345
 -0.0523854988903232  0.5108812315878292 -0.0000030302550275
  0.1405446436566526  0.6548526753936308 -0.0000030289579546
  0.0118751231309446  0.7605647821863215  0.4999969740480567
  0.1921982727115041  0.9217090462165421  0.4999969695294694
  0.8737292217331346  0.3265802155673584 -0.0000030301800069
  0.7590452877327917  0.0858170002515877  0.4999969689910285
  0.5028669232975044 -0.0076611695024671 -0.0000030302316478
  0.6878578533075507  0.1466185699263822 -0.0000030294704294
  0.5794786625538801  0.2555866805470618  0.4999969666019463
  0.6484272379429826  0.4235110745044467  0.4999969730056656
  0.8191583610290069  0.8195636065683143 -0.0000030352670872
  0.8325066058288765  0.5934233544499995  0.4999969703383530
  0.4577045529291426  0.4915923259967703 -0.0000030292874617
  0.6410731392110547  0.6522304600937372 -0.0000030281413842
  0.5125486882672464  0.7631431423140964  0.4999969718515753
  0.6923261513855384  0.9276777346761231  0.4999969710137255
  0.3578130708772141  0.3162156493774121 -0.0000030209348925
  0.3708165972005175  0.1109709574989219  0.4999970217262939
  0.0020110911953609  0.0101216682988096 -0.0000030158763193
  0.1765713486523945  0.1620168494183319 -0.0000030359136349
 -0.0145244507871444  0.2400130020353892  0.4999969503091407
  0.1555162665529413  0.4198606185009579  0.4999969829249333
