POSCAR file written by OVITO            
   1.00000000000000     
    25.4056680780091959    1.5986351287576723    0.0000011346460180
     1.1364682736762548   17.1659662036908571   -0.0000006487206742
     0.0000001422286761   -0.0000002300364649    5.1778897752902617
   Mg   Nd
    86     6
Direct
  0.3046030985840611  0.1759751808876904 -0.0000031567804547
  0.4037430463081488 -0.0097640958757029  0.9999968800609467
  0.2739649739968644  0.0081819334281672  0.9999968895305320
  0.4691189561402338  0.3313783084686385 -0.0000031344242011
  0.2792241422339839  0.4260586457700208  0.4999968661668568
  0.4044321152037935  0.2472705749103944  0.4999968998478800
  0.1489171181935852  0.0048423882783294 -0.0000031239494554
  0.0563221945412768  0.1850317862316040 -0.0000030265316101
  0.4681142945196055  0.0628672396254360  0.4999968771347943
  0.4252661602100089  0.1581125486213649 -0.0000031296407411
  0.0203762928798750  0.4259981991130004  0.4999968773820441
  0.4073099293265636  0.4245383453837881  0.4999968792960791
  0.2150588056290120  0.3525042911831068 -0.0000029481726825
  0.2132588843955910  0.0655286326139684  0.4999969101970299
  0.1205924670718363  0.2481822654225537  0.4999968835498875
  0.0891647589689522  0.0810108522217702  0.4999968798875469
  0.2535746206245344  0.2532888855478663  0.4999968703179787
  0.0844742696411032  0.3513791965101976 -0.0000030759450069
  0.3024728493632673  0.6823814339353466 -0.0000031165926222
  0.3870909141415455  0.5259210186974710  0.9999968965473303
  0.2513161203810781  0.5194122037990878  0.9999968852465644
  0.4756445396588992  0.8206253813966957 -0.0000031259954571
  0.2870236003841879  0.9049165563664971  0.4999968884016801
  0.3645615261153290  0.7335462506393903  0.4999969201973134
  0.1293051989718712  0.5325552424002994 -0.0000030410330148
  0.0521024892846466  0.6913035711586777 -0.0000031078726870
  0.0338848365791448  0.9039022535136756  0.4999968677430846
  0.4137053909827875  0.8916308573895870  0.4999968812917321
  0.2267247342269788  0.8481185306935575 -0.0000030939392882
  0.1918400903723901  0.5890385343439222  0.4999968792277970
  0.1117275614769939  0.7437762050053319  0.4999968796623626
  0.0651368337498129  0.5846529797151480  0.4999968552776224
  0.2379246378538394  0.7448735160196416  0.4999968753401507
  0.0986330181461054  0.8504462906207730 -0.0000031080787788
  0.8005763990890190  0.1785065609255840 -0.0000031350936066
  0.8857413742458567  0.0178733285903197  0.9999968764307672
  0.7655868865820422  0.0059457381404994  0.9999968538579022
  0.9620507782491688  0.3643551391329408 -0.0000030906009957
  0.7724375511149276  0.3990950763234565  0.4999968553220518
  0.8587958564687659  0.2406991905423634  0.4999968629157354
  0.6460674272658601 -0.0081609726889621 -0.0000031401592686
  0.5497543104483702  0.1593416528250517 -0.0000031416156693
  0.9416795754818206  0.0824332431176648  0.4999968584931592
  0.9261910044992721  0.1867737977840533 -0.0000031011566141
  0.8977955661395322  0.4107313351360851  0.4999968655594549
  0.7165586949115273  0.3383477887583821 -0.0000031404147236
  0.6996680278825893  0.0581768574078034  0.4999968623990714
  0.6079117319484079  0.2188899303000618  0.4999968470017410
  0.5839716537019278  0.0452964922530632  0.4999968458002869
  0.7333787448059947  0.2309882785962926  0.4999968676249704
  0.5926486635877474  0.3260343331769755 -0.0000031346210721
  0.8044844789482443  0.6761156886812790 -0.0000031360570788
  0.8829291497130397  0.5198543594025158  0.9999968634400368
  0.7577311220866070  0.5070488123114558  0.9999968581663968
  0.9732570841382583  0.8490069166732350 -0.0000031163848842
  0.7820160992234041  0.8994880631144431  0.4999968566107834
  0.8605168422323788  0.7400450191018605  0.4999968573121458
  0.6292891799438608  0.4986034798454798 -0.0000031430311051
  0.5514900425764532  0.6589136503786933 -0.0000031347558208
  0.9378357057709605  0.5802148728076162  0.4999968721475195
  0.9280763949711052  0.6875237301482536 -0.0000031277804391
  0.5355662567917426  0.8819464944147364  0.4999968714244043
  0.9097797159700589  0.9124465828011804  0.4999968644856834
  0.7261287859634360  0.8335628158417357 -0.0000031498430567
  0.6892756953461664  0.5568891963061814  0.4999968606712114
  0.6108709063889590  0.7164657691529956  0.4999968500940619
  0.5591063610247068  0.5492712333902318  0.4999968562683165
  0.7359333370886910  0.7262108276443259  0.4999968552364018
  0.6014393420475629  0.8237773353879908 -0.0000031478351371
  0.3502362181705437  0.8424109240226483 -0.0000031299351156
  0.3210109742629215  0.5786053809780722  0.4999968836110810
  0.0093507180927181  0.5280106107024503 -0.0000031143309932
  0.1782755228801257  0.6927624371981970 -0.0000031100066842
 -0.0154720870669376  0.7413263646552296  0.4999968755564043
  0.1558181248197522  0.9057231487472347  0.4999968838685298
  0.8421615703823163  0.3476784668850064 -0.0000031223330173
  0.8185677745464507  0.0702325030319300  0.4999968618357268
  0.5252072258043946 -0.0129330495734670 -0.0000031438169541
  0.6767543841831640  0.1658435747693935 -0.0000031435798634
  0.5279515384635581  0.3768740654440997  0.4999968657220807
  0.6483901174434763  0.3898746488984496  0.4999968615864868
  0.8488838937350842  0.8470150032054393 -0.0000031301025438
  0.8144754251626882  0.5671667436670176  0.4999968624595711
  0.6787017206545348  0.6651664072069818 -0.0000031408945457
  0.4868817624032904  0.7168717482957880  0.4999968473600391
  0.6584976192196967  0.8846869950425199  0.4999968577956989
  0.3410818943768302  0.3431330713153912 -0.0000031297595009
  0.3415291471934613  0.0825153392789042  0.4999969408083465
  0.0157147380357142  0.0229107207501883 -0.0000030844950568
  0.1810980033563037  0.1801656949165238 -0.0000031154582153
 -0.0049747304313818  0.2472082906912951  0.4999967819955320
  0.1531726315048716  0.4157726111076188  0.4999966778490468
