POSCAR file written by OVITO            
   1.00000000000000     
    24.4863121663575463    0.4575517029688272    0.0000119179826225
     0.3248225875707454   17.1546794458199976   -0.0000030398316034
     0.0000004994620635   -0.0000006542634441    5.1868210009065816
   Mg   Nd
    85     6
Direct
  0.2960442883774735  0.1838393964869166 -0.0000032638356556
  0.3896334256021258  0.0249049342601036 -0.0000031275355900
  0.2648197804522147  0.0128996259167454 -0.0000031126909341
  0.4697470238952078  0.3863124454723399 -0.0000031355408590
  0.3153449541039158  0.4756370801632984  0.4999968689794396
  0.4142581355109559  0.3142918807024655  0.4999969491104539
  0.1380640380132900 -0.0103767139399624 -0.0000031885204473
  0.0359309258845362  0.1687555910301013 -0.0000025299942627
  0.5008720586342255  0.1690590945930508  0.4999968441958609
  0.4297623842844228  0.2110639418368118 -0.0000031261051176
  0.0435339944373849  0.4525867069991658  0.4999967671224064
  0.4463933013637599  0.4887495778554430  0.4999968071794991
  0.2037677425741495  0.3524212529862214 -0.0000033903945744
  0.2306776999763409  0.1040485018886709  0.4999964388532713
  0.1334624968676238  0.2769186055208411  0.4999962334896135
  0.0931068655218814  0.0958901943470165  0.4999966193365684
  0.2619962473880883  0.2837906711516006  0.4999969665204392
  0.0760807400810107  0.3454662997215253 -0.0000028224797729
  0.2986626994221518  0.6873103944248826 -0.0000031803946792
  0.3804844356475492  0.5382305085138943  0.9999968369008504
  0.2499470366124660  0.5210129781660853 -0.0000032359934755
  0.4736886787288294  0.8821212629720998 -0.0000031798165839
  0.3314719143053256  0.9566926588104537  0.4999969016738505
  0.4164092546357129  0.8141658874668340  0.4999968619320178
  0.1050156191796541  0.5152351913112824 -0.0000032629138551
  0.0246552367702060  0.6609114938023855 -0.0000031529501329
  0.4279066892699639  0.7079903992895034 -0.0000031772116504
  0.0749262994347002  0.9224697178790044  0.4999969292645783
  0.4584425442181395  0.9897702687550609  0.4999968741812700
  0.2172401477214531  0.8336137735705429 -0.0000032214768476
  0.2361578339847977  0.6276514529814680  0.4999968133543936
  0.1547410971948811  0.7752144230512664  0.4999968932723873
  0.0953727298047908  0.6180440322509019  0.4999967578582957
  0.2869938291260631  0.7905331256814362  0.4999968914559758
  0.0851401095065053  0.8216130104807342 -0.0000032076561808
  0.7704994124737199  0.1222808997245006 -0.0000030862715732
  0.8637348574318776 -0.0286600381132972  0.9999968865324614
  0.7307331055456617 -0.0544037248489029  0.9999968237937996
  0.9310688600758289  0.3274132827627310 -0.0000029792146095
  0.7903231341431957  0.4015276316309260  0.4999969087018385
  0.8716706037993461  0.2535837199036619  0.4999968826045937
  0.6004126130138709 -0.0830230004417365 -0.0000032335834477
  0.5577770136228509  0.2386443997408407 -0.0000031075952448
  0.9621282326788639  0.0909343809115276  0.4999967694168301
  0.9059005931319973  0.1528980947715906 -0.0000030793087693
  0.9166954121534748  0.4280788734022474  0.4999968815119816
  0.6790555885109987  0.2675407823502887 -0.0000030302329539
  0.7121104477572853  0.0499897286560537  0.4999967642912442
  0.5415315297697978  0.3450131384733916  0.4999968674322876
  0.5860945716655166  0.0230978472634277  0.4999967408301088
  0.7462246032719481  0.2249915789672420  0.4999968969346452
  0.7652123081414179  0.6203641701833160 -0.0000031669887326
  0.8468767657757571  0.4726731317030400  0.9999968484309371
  0.7205445521676832  0.4449556433941304  0.9999969387423011
  0.9433677391160666  0.8141859593750107 -0.0000031602968009
  0.7997203486478159  0.9014045637860346  0.4999968263380260
  0.8822497806587728  0.7508979196651934  0.4999969271368801
  0.5951899505589088  0.4154932434500795 -0.0000031141518829
  0.5096035107670186  0.5609191689913958 -0.0000031498725654
  0.9639028408686557  0.6033477527891972  0.4999968521185947
  0.8936973923110035  0.6455924988956651 -0.0000031952952566
  0.5444508755438630  0.8453662695364992  0.4999968532978397
  0.9304058284881819  0.9193518877573832  0.4999968682944527
  0.6832919441964207  0.7674144737465206 -0.0000031633589085
  0.7086007533720055  0.5508097008340546  0.4999968846640638
  0.6259338715103151  0.6978038747368160  0.4999968713684942
  0.5799918733712972  0.5201154761494100  0.4999969395679449
  0.7539833223561404  0.7261584442388465  0.4999968851452606
  0.5554285148806277  0.7376786813431842 -0.0000031781966383
  0.3444473499041600  0.8538361943757193 -0.0000031449054488
  0.3697107209452094  0.6449729033867667  0.4999968786144731
 -0.0242630880899826  0.4913502160769229 -0.0000031646008051
  0.1649357169085699  0.6662541577679953 -0.0000031225125171
  0.0149232748796272  0.7708326191563323  0.4999968443746294
  0.2037337423624236  0.9366116192866994  0.4999968703393283
  0.8040614950423018  0.2959152206316809 -0.0000030796866630
  0.8380625153650396  0.0757649020972829  0.4999968375545221
  0.5126228567786777  0.0636586117956893 -0.0000031586530565
  0.6413118634647420  0.0959171965658377 -0.0000033024612664
  0.6652789952828035  0.3738041226737370  0.4999968991707204
  0.8120830007617792  0.7950722612398737 -0.0000031740665908
  0.8363888103744674  0.5780599217865484  0.4999969428837535
  0.6372189827481015  0.5914679172313868 -0.0000031086286245
  0.4977818817027780  0.6676081600424879  0.4999968428372044
  0.6718237580623454  0.8755893156842319  0.4999967920454444
  0.3345466058578369  0.3574122981259852 -0.0000031421982494
  0.3620933609661555  0.1404325180716469  0.4999962172186772
  0.0044221964701584 -0.0091207009759245 -0.0000031243003880
  0.1671264589293982  0.1781500341961336 -0.0000022701397141
  0.0044740960562368  0.2658994651184521  0.4999959994789993
  0.1778803499171419  0.4518233055341060  0.4999973056777146
